384
Lattice="15.6482 0.0 0.0 0.0 15.6482 0.0 0.0 0.0 15.6482" Properties=species:S:1:pos:R:3 pbc="T T T"
O        0.08624956       3.72107234       4.60008597
H       15.41702578       3.05997360       5.20707284
H        0.94298525       3.35713043       4.20572950
O       10.72407249       7.96269045       1.86892408
H       11.28547503       7.42032053       1.27305823
H       10.16109932       8.60503295       1.37807197
O       10.49510995      13.93641347      14.66178156
H        9.70957849      13.89361234      14.04506107
H       10.21035349      14.48512784      15.46506308
O        8.63352916      13.24658862      12.86445769
H        8.95711501      13.53602943      11.97308066
H        7.92208903      13.92026860      13.10959308
O       15.61962849       9.50363348      10.79853634
H        0.74777079       9.06454919      10.49414359
H       15.11390030       9.91522787      10.04141810
O        8.62786137       0.28865070       3.90153372
H        7.65575192       0.18116550       3.76725597
H        9.03739568       0.05451315       3.06537410
O        4.50098426      15.16021173       1.65550007
H        4.90332971       0.30202657       1.09594937
H        3.73169315      14.78094571       1.16309152
O        5.41440265      12.30527801      14.65006911
H        6.03119998      13.05149782      14.47346906
H        4.54270604      12.60407031      14.31241018
O        9.86111971       5.91945172      11.64078579
H        9.23022266       6.56314498      11.26541434
H       10.73779850       6.10622040      11.29727362
O        4.43225279       5.66524034       8.68324062
H        5.12430971       5.40644166       9.27849235
H        3.96099060       4.86464564       8.44183412
O       14.99973237       3.69102198       1.35202726
H        4.07047496      11.79712404       6.93074115
H        0.07846399       3.32534800       1.87585358
O        5.91253200       0.20370392       3.87751967
H        5.79773724      15.25373784       4.63512778
H        5.33734115      15.48488344       3.18164515
O        0.24628081      11.69224491      12.62816395
H        0.35398101      10.81345540      12.30109721
H        0.68161040      12.35711385      12.00918128
O        8.29635729       6.07325922       7.17650912
H        7.68065103       5.44743816       7.62687430
H        9.03389086       5.56976527       6.81796795
O        0.73682070       7.07491955       7.97984311
H        1.26932938       7.45555356       8.77226292
H        1.25442963       6.36617997       7.54810595
O       13.78067072       7.41673138       8.43206100
H       14.78573724       7.39170114       8.34659800
H       13.51322902       6.60022409       7.89839334
O       15.19099387       0.16237886       6.45134302
H       15.04399141      15.54244030       5.50744352
H        0.18533342       0.88483499       6.37772408
O       13.73482001       5.90768929       1.95439681
H       13.67231593       6.51379348       1.17477004
H       14.17570283       5.05229101       1.86123011
O       11.78074995      15.63300945       4.88881078
H       11.58212579       0.37131907       5.81462833
H       11.18958047      14.90243945       4.83405350
O        6.85722976       9.69262685       6.96708016
H        6.06599790       9.19382238       7.27208870
H        6.83809862       9.72074408       6.01689381
O        8.57015113       5.48367462       0.79163169
H        8.67398805       5.96347335      15.61760628
H        7.88679981       5.95054844       1.28492967
O       10.72179222       3.41303652       8.04681728
H       10.07484297       3.59255653       8.77892617
H       10.34712979       3.89266131       7.23449558
O       13.12479230       0.25096031       2.48737951
H       12.67574355       0.44776899       3.37475757
H       12.98793555       0.99285459       1.85349194
O       14.56724596      14.77204927       8.93291711
H       14.37292342      13.81570086       9.03181681
H       14.79473400      14.82907936       7.99151902
O        6.51341657      14.52627418      13.87564387
H        6.44259756      15.32279410      14.45708338
H        5.84079719      14.64654250      13.17804400
O        9.09449066       9.23279743      13.16856083
H        9.58075287       9.46077084      12.36164278
H        8.16464919       9.36570194      12.98587224
O        3.49112970       2.86279708       7.62026558
H        4.46266298       2.80396040       7.29984527
H        3.43074572       2.35527645       8.43217417
O        2.08281464      14.04422867       6.37976621
H        1.81343264      13.60413878       5.53592510
H        0.50491637       0.60365234       2.03232344
O       10.38742765      13.38145219       2.30252271
H        9.65871158      12.72923283       2.10341691
H       11.24115742      13.14079715       1.93719149
O        5.20087394      12.49236097       1.74498146
H        5.32741200      12.35429314       0.74168339
H        5.10739114      13.44296727       1.87197144
O        9.59380074       1.92220583      14.99323355
H        9.93274065       1.17192079      15.49952938
H       10.34577035       2.58571624      14.85032599
O       15.24737851       7.43749687      12.72873959
H       14.96852173       8.09774084      12.10500849
H        0.24153990       6.89839263      12.16004556
O        7.11149134       7.16847917       1.99973430
H        7.02905491       8.08003278       1.64059386
H        6.20668404       7.00059844       2.31161408
O       13.34333927      12.72658435      12.40657145
H       14.15311317      12.54826745      12.88350283
H       12.68516749      12.19507910      12.84880438
O        3.22607282       7.74915545       5.32719702
H        2.49366072       7.10200627       5.45617084
H        2.68347022       8.43093321       4.78711073
O       13.13687716       3.67119507       9.91525213
H       12.59799520       4.25008097       9.38133782
H        3.76393720      13.14954981       8.78221606
O       11.65706877       3.51834344      14.57966430
H       12.40381482       3.43931863      14.00205676
H       11.53261563       4.49794293      14.80463329
O        0.86492923      13.09996461       3.84863768
H        1.66720851      12.89163062       3.33439131
H        0.18325477      12.51092206       3.56546556
O       14.08951259      12.01138970       9.68826095
H       13.21535097      11.94287732       9.31283496
H       13.92850082      12.28982247      10.60884393
O        5.89978122       2.97233847       6.97556825
H        5.99970486       3.08659656       5.99841179
H        6.54256835       2.37406496       7.35036183
O       13.16142278      13.32272647       1.69083016
H       13.61187534      13.45494054       0.86067418
H        2.26342666       6.70045171      10.16315727
O        8.11320899      11.55386556       2.18652004
H        7.17812098      11.79398997       1.99484915
H        8.33385779      11.21606356       3.08892718
O        7.27403384      12.12722564       8.33523700
H        6.91085144      11.26179010       8.13306752
H        8.14251280      12.10157879       7.92212731
O       14.59322055       3.11489069       7.32561037
H       14.03624010       3.82991384       6.91827140
H       14.14150075       2.26708443       7.21464357
O       10.32317038       9.17659712      10.72147529
H        9.93791166       8.97153278       9.79693144
H       11.12864069       8.66491992      10.88692873
O       15.22129484       4.91317985      14.44350677
H        0.33871966       5.29554363      14.09471091
H       15.53186771       4.17802226      14.95246116
O        6.78420179      12.28152748      11.10075934
H        7.04875327      12.32800356      10.10978619
H        7.64886342      12.42899673      11.62610195
O        9.32531793       9.62367290       0.46413424
H        9.01632232       9.47014668      15.19408738
H        8.57896580      10.14194425       0.85738790
O        0.19857616       3.32177985       9.68199561
H       14.89572378       3.47814489       9.87205089
H        0.17917604       3.32902120       8.65647495
O        6.31217751       5.03763921      10.38271354
H        6.40406459       4.54073685      11.25645046
H        7.03944853       4.55242367       9.94844123
O       11.58766662       0.29530804      11.77320878
H       11.21469312      15.07208534      11.52133223
H       11.99564448       0.08096458      12.61863691
O        1.34659201      13.17000422      10.69633472
H        2.21566230      12.82331718      10.86593613
H        1.10145663      12.78310420       9.79850775
O        2.63017545       4.28488162      14.97769232
H        2.23512096       5.13545347      15.26834508
H        3.06667754       3.83468116       0.07381205
O       13.67910502       3.33580044      12.78389173
H       13.52193115       3.49675345      11.85542077
H       14.20457807       4.06553072      13.19629921
O       14.69910869      11.38774092       2.96399653
H       15.05560514      10.80839535       2.24988355
H       14.09050038      12.00039914       2.52741767
O        9.15389009       1.53740190      12.01283796
H       10.01418461       1.15477856      11.96137164
H        9.23487584       1.86912858      12.91661124
O       11.56863007       6.28758317      15.00416751
H       11.99119165       6.70732892      14.22712456
H       10.60251045       6.29416907      14.76585906
O        5.47695346       7.47115738      13.87165372
H        4.59954726       7.65476131      13.48571639
H        5.81201530       6.60412958      13.57270466
O        1.46371696       6.65927483      15.43303516
H        0.80144804       6.75226045       0.42651865
H        2.23621695       6.85650974       0.38954930
O        8.96702597       6.79088441      14.18500448
H        8.92297925       6.44433137      13.25642733
H        9.16031660       7.71944819      14.01103894
O        5.47610920       9.89195552      11.51809654
H        6.08354414      10.60485386      11.33212240
H        5.60816796       9.10625374      10.89939531
O        0.03249896       0.02906205       3.55880823
H       14.79265503      15.60085799       3.20503873
H        0.39523283      14.76875509       3.69812114
O        4.30180284       3.75798023       1.88545380
H        4.61033014       4.62691270       2.06832633
H        4.88368937       3.24992576       2.40896961
O        4.68017464       8.14928847       7.65888035
H        4.15584151       8.11759940       6.85114703
H        4.78469410       7.13879582       7.83722060
O        3.59306888      11.54988514       9.65456221
H        3.59157427      11.07237238       8.78995274
H        4.09925439      11.11005203      10.30496635
O       12.54883611       7.09701512      10.88735008
H       13.03809009       7.10341529      10.01321566
H       13.30358586       6.88283971      11.43977090
O       12.91180855       1.03328171       9.35887688
H       12.49872282       0.92328484      10.19758918
H       13.52513836       0.26527357       9.28342844
O       14.67643430      11.06289589       6.43598473
H       14.73134403      11.47098698       5.54697223
H       13.86306784      10.50786318       6.48796311
O        1.69264780       4.94079335       6.58686150
H        1.30846232       4.49925721       5.83483225
H        2.22046978       4.27564071       7.05129140
O        8.37621569       8.40781779       8.62883150
H        8.50050033       7.57685441       8.08550157
H        7.92926623       8.98648429       7.93830628
O       13.76371886      10.47098042      15.60496779
H       14.03350979       9.60804992      15.23108611
H       12.87221851      10.64967603      15.34325740
O        7.50854509       7.37964600      11.13000908
H        7.52766349       7.72429266      10.20470107
H        6.87694096       6.63847463      11.06725665
O        9.01923476       9.94092625       4.59910395
H        9.99661786       9.94968266       4.26719646
H        8.70619482       9.00858168       4.51678222
O       14.37355309       7.38279168      15.49981121
H       15.02970789       8.05617569       0.17342901
H       14.73556418       7.17385518      14.59287398
O        3.55423383      11.29623806       6.27402477
H       14.30803036       2.97686060       1.51183164
H        2.64309602      11.44792474       6.63382019
O        5.71620464       0.95773486      15.28491915
H        4.98705850       1.23837937      14.62778054
H        6.10980502       1.83943390      15.47309883
O        9.62058560      11.70496456       6.72995948
H        9.83779457      12.60342027       6.41906045
H        9.31250896      11.32122425       5.92702810
O        1.24413968       0.89752090       9.80736930
H        0.61523615       0.18351602       9.66413959
H        0.67860679       1.68736293       9.74306614
O       12.54382613       2.39611845       1.27796248
H       11.93553539       3.04744689       1.67249902
H       12.39075083       2.67181524       0.31809015
O        7.52437050       0.93026456       8.23621729
H        7.40432337       0.05377601       7.86482708
H        7.51769848       0.78825230       9.18471384
O        8.65002087       3.83207335      10.09744736
H        8.62426926       3.10623410      10.70586179
H        9.10775824       4.60427494      10.52388894
O        3.72852534       0.33983741       9.56893896
H        2.78125571       0.37643774       9.79518728
H        3.85322535      15.23929090       8.93382312
O        0.25090082       9.60905589       1.50392803
H        0.88923556       9.96709564       0.81117073
H        0.81560139       9.32395192       2.26244768
O       10.86295205       6.83795442       4.17552543
H       10.59734367       7.04110123       3.25233344
H       11.61539924       7.42008263       4.19248740
O        3.38180195       4.05817341      12.48967817
H        3.30400326       3.09465279      12.30750860
H        3.03249630       4.07528722      13.41047338
O       13.72156733       7.10815859       4.48003447
H       14.60675690       7.54910990       4.53795875
H       13.73706073       6.70139671       3.58223683
O        1.93655214       2.92132882       2.88310650
H        1.81542178       2.21182913       2.21585516
H        2.75474844       3.35937381       2.59142285
O       13.13754689       5.42277209       6.48982816
H       13.50735098       5.91597340       5.74719969
H       12.23968300       5.16164284       6.20380387
O        2.49653991      10.21375925      15.40304044
H        2.09895161      10.89051017      14.83654371
H        2.53389725       9.42778542      14.82562189
O       11.73675730       9.88511370       3.74666695
H       11.48229548       9.23964183       3.03123152
H       12.59658847      10.20604675       3.38158657
O        4.77810531      14.67814704      11.53070798
H        5.17008472      13.84828244      11.18703733
H        4.40491123      15.21126876      10.71408727
O        0.70666819       1.11130336       1.22417817
H       15.59258041       1.05966631       0.64428845
H        2.05388712      14.98326220       6.15369960
O        1.70865203       1.50360942       5.47933591
H        1.91770551       1.93181124       4.64188188
H        2.30435206       1.95294154       6.13122387
O        6.38665071      14.27082699       6.63639733
H        7.15290411      13.66909837       6.60141065
H        5.76477530      13.77006790       7.15629283
O        0.21718025      12.42647831      15.46564912
H        0.31812259      12.37543689      14.48629876
H       15.15938181      11.78558618      15.61781096
O        4.91605991       9.15850156       2.07769591
H        5.21544422       9.53519871       2.94042955
H        4.69007137       9.94703403       1.53117676
O        1.63172765      15.59430141      12.94843647
H        0.87214246       0.11873053      13.53493753
H        1.34977418       0.17175036      12.08161539
O        6.66486577       9.66146602      14.28864999
H        6.11558688      10.36540483      13.87190173
H        6.40105030       8.78557784      13.95518048
O        1.07027495      12.03799426       8.06049875
H        0.32690513      11.69006954       7.57653339
H        1.27590378      12.90395407       7.69192177
O        4.10793339      13.67495531       8.09103794
H        3.37629361      13.72350886       7.43574128
H       13.00588908       2.83055124       9.40746406
O       10.10653451       0.17867337       1.47493141
H       10.80073085       0.62905694       1.96025976
H       10.20440757      14.88197089       1.72235578
O        9.21462096       3.12218588       4.03525505
H        9.92198509       3.32410263       3.36187536
H        9.24677498       2.18416064       4.05918674
O        4.08429990       1.22014703      13.21967616
H        3.14983659       0.90821697      13.16791298
H        4.53437369       0.52840492      12.70114166
O        1.95509179      14.17539212       0.91914162
H        1.13627351      13.65198007       0.85915507
H        1.59682053      15.02384029       1.09707659
O        2.44629310       7.58153452       9.81298196
H        3.31145772       7.54059757       9.33773571
H       13.20954649      14.24764121       2.04816832
O       10.80734759       4.28140028       2.13108499
H       11.43697812       5.02271237       2.32063567
H       10.12035284       4.66173843       1.52545558
O       10.12044251      13.90203711      10.45521490
H        9.62829533      14.11883977       9.66865593
H       10.65485027      13.05514433      10.15130134
O       12.88278624      14.81581608      14.10722542
H       13.00308747      14.04767195      13.50194349
H       11.98132514      14.70127722      14.41418083
O        9.47349288      14.60590602       6.23994722
H        9.78261520      15.34518757       6.74309790
H        9.22109067      14.97836221       5.35413629
O       11.06493350       0.91240357       7.36774476
H       11.87250590       0.91419179       8.00403262
H       10.53261251       1.61756158       7.72100404
O       12.56098880       9.75898772       7.04311225
H       12.15146045       9.43315597       6.23491896
H       12.93433472       8.88987350       7.42728074
O       11.07424499      11.69926064       9.47534490
H       11.05273968      10.78623567       9.78562634
H       10.62358920      11.57326283       8.56145953
O        3.38349454       8.47592899      12.72086328
H        3.95761466       9.09219526      12.27443273
H        2.97577338       8.01434234      11.99789663
O        7.23960633       3.14209785      15.53747733
H        7.58714087       4.06571308       0.10027914
H        7.94095298       2.51298414      15.24276846
O        7.58480282      15.52153999      10.81020044
H        6.70016656      15.42060953      11.14401366
H        8.07688125       0.41675397      11.51654647
O        2.75445971      13.16166293      13.87682636
H        2.34419829      13.64794736      13.14213113
H        2.45593227      13.68894918      14.64232457
O       10.27848625       4.81353328       5.82018937
H        9.98126691       4.08185424       5.20389925
H       10.45849997       5.61091324       5.26460682
O        6.20945288       4.61611862      13.08103183
H        5.33181322       4.31698535      12.83117380
H        6.58488816       4.09223250      13.79060671
O        0.14350718       8.50254284       5.62322170
H        0.37122140       7.90123821       6.30931765
H       15.34454948       9.32912582       5.93188450
O        1.95852508       9.35753342       3.82355512
H        1.24036868       9.43920725       4.42864909
H        2.29883966      10.28470467       3.63877672
O        3.29176997      11.56026967       3.41930103
H        3.52085170      11.91110390       4.32351983
H        4.09134081      11.76111028       2.84393301
O        3.81855632       7.09345806       0.53644180
H        3.97331354       7.70182116       1.23510365
H        4.49340916       7.27044283      15.48237877
O        7.55180743       7.55025423       4.81544700
H        7.49953096       6.99368863       3.99772636
H        7.74048571       7.10751019       5.58501812
O        6.25782741       2.98270440       4.12030040
H        6.12512042       1.97582011       4.03232394
H        7.23925441       3.09752689       4.09373433
O        1.39893859       5.40327225      11.06132390
H        2.08949622       5.04418418      11.74533792
H        1.06774289       4.55647879      10.71559558
O       11.29541227      11.16030744      13.95502906
H       10.58486373      10.51598145      14.02927741
H       10.81780614      12.01081429      14.16839451
O        4.86151793       6.45795942       3.34592051
H        5.14912349       5.92515257       4.09587598
H        4.12944813       7.07764836       3.64843001
O       14.96511034       0.93447008      14.19892859
H       14.76861304       1.78760904      13.77830368
H       14.10667432       0.42185422      14.35268560
