384
Lattice="15.6482 0.0 0.0 0.0 15.6482 0.0 0.0 0.0 15.6482" Properties=species:S:1:pos:R:3 pbc="T T T"
O        0.08624956       3.72107239       4.60008603
H       15.41702599       3.05997364       5.20707291
H        0.94298526       3.35713048       4.20572956
O       10.72407264       7.96269056       1.86892411
H       11.28547518       7.42032063       1.27305825
H       10.16109946       8.60503307       1.37807199
O       10.49511009      13.93641366      14.66178176
H        9.70957862      13.89361253      14.04506126
H       10.21035363      14.48512804      15.46506329
O        8.63352928      13.24658880      12.86445787
H        8.95711513      13.53602962      11.97308082
H        7.92208914      13.92026879      13.10959326
O       15.61962870       9.50363361      10.79853649
H        0.74777080       9.06454931      10.49414373
H       15.11390051       9.91522801      10.04141824
O        8.62786149       0.28865070       3.90153377
H        7.65575202       0.18116550       3.76725602
H        9.03739580       0.05451315       3.06537414
O        4.50098432      15.16021194       1.65550009
H        4.90332978       0.30202657       1.09594938
H        3.73169320      14.78094591       1.16309154
O        5.41440272      12.30527818      14.65006931
H        6.03120006      13.05149800      14.47346926
H        4.54270610      12.60407048      14.31241038
O        9.86111984       5.91945180      11.64078595
H        9.23022279       6.56314507      11.26541449
H       10.73779865       6.10622048      11.29727377
O        4.43225285       5.66524042       8.68324074
H        5.12430978       5.40644173       9.27849248
H        3.96099065       4.86464571       8.44183424
O       14.99973258       3.69102203       1.35202728
H        4.07047502      11.79712420       6.93074124
H        0.07846399       3.32534805       1.87585361
O        5.91253208       0.20370392       3.87751972
H        5.79773732      15.25373805       4.63512784
H        5.33734122      15.48488365       3.18164519
O        0.24628081      11.69224507      12.62816412
H        0.35398101      10.81345555      12.30109738
H        0.68161041      12.35711402      12.00918144
O        8.29635740       6.07325930       7.17650922
H        7.68065114       5.44743823       7.62687440
H        9.03389098       5.56976535       6.81796804
O        0.73682071       7.07491965       7.97984322
H        1.26932940       7.45555366       8.77226304
H        1.25442965       6.36618006       7.54810605
O       13.78067091       7.41673148       8.43206112
H       14.78573744       7.39170124       8.34659811
H       13.51322920       6.60022418       7.89839345
O       15.19099408       0.16237886       6.45134311
H       15.04399162      15.54244051       5.50744360
H        0.18533342       0.88483500       6.37772417
O       13.73482020       5.90768937       1.95439684
H       13.67231612       6.51379357       1.17477006
H       14.17570302       5.05229108       1.86123014
O       11.78075011      15.63300966       4.88881085
H       11.58212595       0.37131908       5.81462841
H       11.18958062      14.90243965       4.83405357
O        6.85722985       9.69262698       6.96708026
H        6.06599798       9.19382251       7.27208880
H        6.83809871       9.72074421       6.01689389
O        8.57015125       5.48367469       0.79163170
H        8.67398817       5.96347343      15.61760649
H        7.88679992       5.95054852       1.28492969
O       10.72179237       3.41303657       8.04681739
H       10.07484311       3.59255658       8.77892629
H       10.34712993       3.89266136       7.23449568
O       13.12479248       0.25096031       2.48737954
H       12.67574372       0.44776900       3.37475762
H       12.98793573       0.99285460       1.85349197
O       14.56724616      14.77204947       8.93291723
H       14.37292362      13.81570105       9.03181693
H       14.79473420      14.82907956       7.99151913
O        6.51341666      14.52627438      13.87564406
H        6.44259765      15.32279431      14.45708358
H        5.84079727      14.64654270      13.17804418
O        9.09449078       9.23279756      13.16856101
H        9.58075300       9.46077097      12.36164295
H        8.16464930       9.36570207      12.98587242
O        3.49112975       2.86279712       7.62026568
H        4.46266304       2.80396044       7.29984537
H        3.43074577       2.35527648       8.43217429
O        2.08281467      14.04422886       6.37976630
H        1.81343266      13.60413897       5.53592518
H        0.50491638       0.60365235       2.03232347
O       10.38742779      13.38145237       2.30252274
H        9.65871171      12.72923300       2.10341694
H       11.24115757      13.14079733       1.93719152
O        5.20087401      12.49236114       1.74498148
H        5.32741207      12.35429331       0.74168340
H        5.10739121      13.44296745       1.87197147
O        9.59380087       1.92220586      14.99323375
H        9.93274079       1.17192081      15.49952959
H       10.34577049       2.58571628      14.85032619
O       15.24737872       7.43749697      12.72873976
H       14.96852193       8.09774095      12.10500866
H        0.24153990       6.89839272      12.16004573
O        7.11149144       7.16847927       1.99973433
H        7.02905501       8.08003289       1.64059388
H        6.20668412       7.00059854       2.31161411
O       13.34333945      12.72658452      12.40657162
H       14.15311336      12.54826762      12.88350301
H       12.68516766      12.19507927      12.84880456
O        3.22607286       7.74915556       5.32719709
H        2.49366075       7.10200637       5.45617091
H        2.68347026       8.43093333       4.78711080
O       13.13687734       3.67119512       9.91525227
H       12.59799537       4.25008103       9.38133795
H        3.76393725      13.14954999       8.78221618
O       11.65706893       3.51834349      14.57966450
H       12.40381499       3.43931868      14.00205695
H       11.53261579       4.49794299      14.80463349
O        0.86492924      13.09996479       3.84863773
H        1.66720853      12.89163080       3.33439136
H        0.18325477      12.51092223       3.56546561
O       14.08951278      12.01138986       9.68826108
H       13.21535115      11.94287748       9.31283509
H       13.92850101      12.28982264      10.60884408
O        5.89978130       2.97233851       6.97556835
H        5.99970494       3.08659660       5.99841187
H        6.54256844       2.37406499       7.35036193
O       13.16142296      13.32272665       1.69083018
H       13.61187553      13.45494072       0.86067419
H        2.26342669       6.70045180      10.16315741
O        8.11320910      11.55386572       2.18652007
H        7.17812108      11.79399013       1.99484918
H        8.33385790      11.21606371       3.08892722
O        7.27403394      12.12722581       8.33523711
H        6.91085153      11.26179025       8.13306763
H        8.14251291      12.10157896       7.92212742
O       14.59322075       3.11489073       7.32561047
H       14.03624029       3.82991389       6.91827149
H       14.14150094       2.26708446       7.21464367
O       10.32317052       9.17659725      10.72147544
H        9.93791180       8.97153290       9.79693157
H       11.12864084       8.66492004      10.88692888
O       15.22129505       4.91317992      14.44350697
H        0.33871966       5.29554370      14.09471110
H       15.53186792       4.17802232      14.95246136
O        6.78420188      12.28152765      11.10075949
H        7.04875337      12.32800373      10.10978633
H        7.64886352      12.42899690      11.62610211
O        9.32531806       9.62367303       0.46413425
H        9.01632244       9.47014681      15.19408759
H        8.57896592      10.14194439       0.85738791
O        0.19857616       3.32177990       9.68199574
H       14.89572398       3.47814494       9.87205102
H        0.17917604       3.32902125       8.65647507
O        6.31217760       5.03763928      10.38271368
H        6.40406468       4.54073691      11.25645061
H        7.03944863       4.55242373       9.94844137
O       11.58766678       0.29530804      11.77320894
H       11.21469327      15.07208555      11.52133239
H       11.99564464       0.08096458      12.61863708
O        1.34659203      13.17000440      10.69633487
H        2.21566233      12.82331736      10.86593628
H        1.10145665      12.78310437       9.79850788
O        2.63017549       4.28488168      14.97769252
H        2.23512099       5.13545354      15.26834529
H        3.06667758       3.83468121       0.07381205
O       13.67910521       3.33580049      12.78389190
H       13.52193133       3.49675350      11.85542093
H       14.20457826       4.06553078      13.19629939
O       14.69910889      11.38774108       2.96399657
H       15.05560535      10.80839550       2.24988358
H       14.09050057      12.00039930       2.52741770
O        9.15389022       1.53740192      12.01283812
H       10.01418475       1.15477858      11.96137180
H        9.23487597       1.86912861      12.91661142
O       11.56863023       6.28758326      15.00416772
H       11.99119181       6.70732901      14.22712475
H       10.60251059       6.29416916      14.76585926
O        5.47695353       7.47115748      13.87165391
H        4.59954732       7.65476141      13.48571657
H        5.81201538       6.60412967      13.57270485
O        1.46371698       6.65927492      15.43303537
H        0.80144805       6.75226054       0.42651866
H        2.23621698       6.85650983       0.38954931
O        8.96702609       6.79088450      14.18500467
H        8.92297937       6.44433146      13.25642751
H        9.16031673       7.71944830      14.01103913
O        5.47610927       9.89195566      11.51809670
H        6.08354422      10.60485400      11.33212255
H        5.60816804       9.10625386      10.89939546
O        0.03249896       0.02906205       3.55880828
H       14.79265523      15.60085820       3.20503877
H        0.39523284      14.76875529       3.69812119
O        4.30180290       3.75798028       1.88545383
H        4.61033020       4.62691276       2.06832636
H        4.88368944       3.24992580       2.40896964
O        4.68017470       8.14928858       7.65888045
H        4.15584157       8.11759951       6.85114712
H        4.78469417       7.13879592       7.83722071
O        3.59306893      11.54988530       9.65456234
H        3.59157432      11.07237253       8.78995286
H        4.09925445      11.11005218      10.30496649
O       12.54883628       7.09701522      10.88735023
H       13.03809027       7.10341539      10.01321580
H       13.30358604       6.88283980      11.43977106
O       12.91180873       1.03328172       9.35887701
H       12.49872299       0.92328485      10.19758932
H       13.52513854       0.26527357       9.28342857
O       14.67643450      11.06289604       6.43598482
H       14.73134423      11.47098714       5.54697231
H       13.86306803      10.50786332       6.48796320
O        1.69264782       4.94079342       6.58686159
H        1.30846234       4.49925727       5.83483233
H        2.22046981       4.27564077       7.05129150
O        8.37621580       8.40781790       8.62883162
H        8.50050045       7.57685451       8.08550168
H        7.92926634       8.98648441       7.93830639
O       13.76371905      10.47098056      15.60496800
H       14.03350998       9.60805005      15.23108632
H       12.87221869      10.64967618      15.34325761
O        7.50854519       7.37964610      11.13000923
H        7.52766359       7.72429277      10.20470121
H        6.87694105       6.63847472      11.06725680
O        9.01923488       9.94092639       4.59910401
H        9.99661800       9.94968280       4.26719652
H        8.70619494       9.00858180       4.51678228
O       14.37355329       7.38279178      15.49981142
H       15.02970810       8.05617580       0.17342901
H       14.73556438       7.17385528      14.59287418
O        3.55423388      11.29623821       6.27402486
H       14.30803056       2.97686064       1.51183166
H        2.64309606      11.44792490       6.63382028
O        5.71620472       0.95773487      15.28491936
H        4.98705857       1.23837939      14.62778074
H        6.10980510       1.83943393      15.47309904
O        9.62058573      11.70496472       6.72995957
H        9.83779470      12.60342044       6.41906054
H        9.31250909      11.32122440       5.92702818
O        1.24413970       0.89752091       9.80736943
H        0.61523616       0.18351602       9.66413972
H        0.67860680       1.68736295       9.74306627
O       12.54382630       2.39611848       1.27796250
H       11.93553555       3.04744693       1.67249904
H       12.39075100       2.67181528       0.31809015
O        7.52437060       0.93026457       8.23621740
H        7.40432347       0.05377601       7.86482719
H        7.51769858       0.78825231       9.18471397
O        8.65002099       3.83207340      10.09744750
H        8.62426938       3.10623414      10.70586194
H        9.10775836       4.60427500      10.52388908
O        3.72852539       0.33983741       9.56893909
H        2.78125575       0.37643775       9.79518741
H        3.85322540      15.23929111       8.93382324
O        0.25090082       9.60905602       1.50392805
H        0.88923557       9.96709578       0.81117074
H        0.81560140       9.32395205       2.26244771
O       10.86295220       6.83795451       4.17552549
H       10.59734381       7.04110133       3.25233348
H       11.61539940       7.42008273       4.19248746
O        3.38180200       4.05817347      12.48967834
H        3.30400331       3.09465283      12.30750877
H        3.03249634       4.07528728      13.41047356
O       13.72156752       7.10815869       4.48003453
H       14.60675710       7.54911000       4.53795881
H       13.73706092       6.70139680       3.58223688
O        1.93655217       2.92132886       2.88310654
H        1.81542180       2.21182916       2.21585519
H        2.75474848       3.35937386       2.59142289
O       13.13754707       5.42277216       6.48982825
H       13.50735116       5.91597348       5.74719977
H       12.23968317       5.16164291       6.20380395
O        2.49653994      10.21375939      15.40304065
H        2.09895164      10.89051032      14.83654391
H        2.53389728       9.42778555      14.82562209
O       11.73675746       9.88511384       3.74666700
H       11.48229564       9.23964196       3.03123156
H       12.59658864      10.20604689       3.38158662
O        4.77810538      14.67814724      11.53070814
H        5.17008479      13.84828263      11.18703748
H        4.40491129      15.21126897      10.71408742
O        0.70666820       1.11130338       1.22417819
H       15.59258062       1.05966632       0.64428846
H        2.05388715      14.98326240       6.15369968
O        1.70865205       1.50360944       5.47933598
H        1.91770554       1.93181127       4.64188194
H        2.30435209       1.95294157       6.13122395
O        6.38665080      14.27082719       6.63639742
H        7.15290421      13.66909856       6.60141074
H        5.76477538      13.77006809       7.15629293
O        0.21718025      12.42647848      15.46564933
H        0.31812259      12.37543706      14.48629896
H       15.15938202      11.78558634      15.61781117
O        4.91605998       9.15850169       2.07769594
H        5.21544429       9.53519884       2.94042959
H        4.69007143       9.94703417       1.53117678
O        1.63172767      15.59430162      12.94843665
H        0.87214247       0.11873053      13.53493772
H        1.34977420       0.17175036      12.08161556
O        6.66486586       9.66146615      14.28865019
H        6.11558696      10.36540497      13.87190192
H        6.40105039       8.78557796      13.95518067
O        1.07027496      12.03799442       8.06049886
H        0.32690513      11.69006970       7.57653349
H        1.27590380      12.90395425       7.69192188
O        4.10793345      13.67495550       8.09103805
H        3.37629366      13.72350905       7.43574138
H       13.00588926       2.83055128       9.40746419
O       10.10653465       0.17867337       1.47493143
H       10.80073100       0.62905695       1.96025979
H       10.20440771      14.88197109       1.72235580
O        9.21462109       3.12218592       4.03525511
H        9.92198523       3.32410268       3.36187541
H        9.24677511       2.18416067       4.05918680
O        4.08429996       1.22014705      13.21967634
H        3.14983663       0.90821698      13.16791316
H        4.53437375       0.52840493      12.70114183
O        1.95509182      14.17539231       0.91914163
H        1.13627353      13.65198026       0.85915508
H        1.59682055      15.02384050       1.09707660
O        2.44629313       7.58153462       9.81298209
H        3.31145777       7.54059767       9.33773584
H       13.20954667      14.24764140       2.04816835
O       10.80734774       4.28140034       2.13108502
H       11.43697828       5.02271244       2.32063570
H       10.12035298       4.66173849       1.52545560
O       10.12044265      13.90203730      10.45521504
H        9.62829546      14.11883996       9.66865606
H       10.65485042      13.05514451      10.15130148
O       12.88278642      14.81581628      14.10722561
H       13.00308765      14.04767214      13.50194367
H       11.98132530      14.70127742      14.41418103
O        9.47349301      14.60590622       6.23994731
H        9.78261533      15.34518778       6.74309799
H        9.22109080      14.97836241       5.35413636
O       11.06493365       0.91240358       7.36774486
H       11.87250606       0.91419180       8.00403273
H       10.53261265       1.61756160       7.72100415
O       12.56098897       9.75898785       7.04311235
H       12.15146062       9.43315610       6.23491905
H       12.93433490       8.88987362       7.42728084
O       11.07424514      11.69926080       9.47534503
H       11.05273983      10.78623582       9.78562647
H       10.62358935      11.57326299       8.56145965
O        3.38349459       8.47592911      12.72086345
H        3.95761471       9.09219538      12.27443290
H        2.97577342       8.01434245      11.99789679
O        7.23960643       3.14209789      15.53747754
H        7.58714097       4.06571314       0.10027914
H        7.94095309       2.51298417      15.24276867
O        7.58480292      15.52154020      10.81020059
H        6.70016665      15.42060974      11.14401381
H        8.07688136       0.41675398      11.51654663
O        2.75445975      13.16166311      13.87682655
H        2.34419832      13.64794755      13.14213131
H        2.45593230      13.68894937      14.64232477
O       10.27848639       4.81353335       5.82018945
H        9.98126705       4.08185430       5.20389932
H       10.45850011       5.61091332       5.26460689
O        6.20945296       4.61611868      13.08103201
H        5.33181329       4.31698541      12.83117398
H        6.58488825       4.09223256      13.79060690
O        0.14350718       8.50254296       5.62322178
H        0.37122141       7.90123832       6.30931774
H       15.34454969       9.32912595       5.93188458
O        1.95852511       9.35753355       3.82355517
H        1.24036870       9.43920738       4.42864915
H        2.29883969      10.28470481       3.63877677
O        3.29177002      11.56026983       3.41930108
H        3.52085175      11.91110406       4.32351989
H        4.09134087      11.76111044       2.84393305
O        3.81855637       7.09345816       0.53644181
H        3.97331359       7.70182127       1.23510367
H        4.49340922       7.27044293      15.48237898
O        7.55180753       7.55025433       4.81544707
H        7.49953106       6.99368873       3.99772641
H        7.74048582       7.10751029       5.58501820
O        6.25782750       2.98270444       4.12030046
H        6.12512050       1.97582014       4.03232400
H        7.23925451       3.09752693       4.09373439
O        1.39893861       5.40327232      11.06132405
H        2.08949625       5.04418425      11.74533808
H        1.06774290       4.55647885      10.71559573
O       11.29541242      11.16030759      13.95502925
H       10.58486387      10.51598159      14.02927760
H       10.81780629      12.01081445      14.16839470
O        4.86151800       6.45795951       3.34592056
H        5.14912356       5.92515265       4.09587604
H        4.12944819       7.07764846       3.64843006
O       14.96511054       0.93447009      14.19892878
H       14.76861324       1.78760906      13.77830387
H       14.10667451       0.42185423      14.35268580
