units		electron
atom_style	full

pair_style      lj/cut/tip4p/long 1 2 1 1 0.278072379 17.007
bond_style      class2 
angle_style     harmonic
kspace_style	pppm/tip4p 0.0001

read_data	data/water_32_data.lmp
pair_coeff  * * 0 0
pair_coeff  1  1  0.000295147 5.96946

neighbor	2.0 bin

thermo     100

velocity all create 300.0 2345187

fix 1 all gle 6 300 300 31415 data/smart.A

timestep	1.0
dump		1 all xyz 100 dump.xyz

run		10000

