384
Lattice="16.227556926989447 0.0 0.0 0.0 16.227556926989447 0.0 0.0 0.0 16.227556926989447" Properties=species:S:1:pos:R:3 pbc="T T T"
O       10.37501006      15.90853494      14.31332613
H       10.41855358      15.11356901      14.92901104
H        9.45876435      15.92324361      14.14681383
O        9.94910906       2.61424606      11.46509177
H       10.91366474       2.66639559      11.24952877
H        9.88976017       2.64032363      12.43935368
O        3.56834873      13.47306001      15.64223476
H        4.03686889      13.13747004       0.19124928
H       15.26580458       6.89834407       4.60911117
O        7.96980732       9.61694688      13.21070772
H        7.38995898       9.04931161      12.72452346
H        7.39963847      10.28008753      13.66470442
O        4.16538628       3.47884922       7.28445014
H        6.79568256      13.82565875       6.61304049
H        4.59781578      15.39761635      10.71009485
O        2.75416717       1.80865979       3.57750521
H        3.05708758      15.05541774       4.81688248
H        7.16446406      14.12346060      13.80786157
O        1.70624329       3.85849403      15.81256919
H        1.79180398       4.05132255      14.81933368
H        1.64870302      10.09800533       1.31573766
O       15.67945955      11.12107750      14.01818212
H        0.22070842      10.98300896      13.47978178
H       15.02466593      11.32279811      13.30120349
O       10.06927646       6.51789401       8.10382837
H        9.11747894       6.67954067       7.91260579
H       10.64989249       6.95168418       7.44262037
O        2.21902482       0.86213521      12.72867335
H       13.34389973      10.04873703       1.08894669
H        3.03888629       1.32643067      12.59545501
O        5.36255001      15.94390133      10.51414890
H       11.58177282       3.08268631       4.98122962
H        8.49969901       3.17953367      10.50823687
O        3.68703971       8.33236797       5.65213652
H       10.27505665      12.95319288      15.74286941
H        3.56173443       5.46422313       7.38172803
O        2.20029446      14.94888733       5.34683682
H        2.05391778      14.00820588       5.26672670
H       13.58249100       3.88331671      12.61530920
O        8.45581545      14.23892855       1.50454022
H        9.77394078      10.92900257       1.18449663
H        7.57687799      13.87140655       1.65687747
O        9.06116901      10.30363109       0.97774007
H        8.78176633       9.94356873       1.83588867
H        3.22730843       2.17943807       2.77444341
O       10.48750417       9.42766825      12.39224322
H       11.49418320       2.12418432       7.02277578
H        5.06515891       5.97278788      12.34930196
O       11.64134474       8.12961317       6.47421928
H        6.23087361      12.03496787       1.14721345
H        6.63702782       4.81564972       3.22575332
O       12.20348968       3.84203342      15.13103776
H       12.22545646       4.79277755      15.27134839
H       11.29479977       3.65560018      14.82133606
O        4.38136495      12.04534549       2.11005431
H        5.81898879       7.35229500       3.69362597
H        5.61598759      14.82309469       3.74465043
O       15.09510673       5.29126202       8.15884396
H        5.07886856       3.64822874       7.13201365
H       15.99102275       4.98216756       8.48692130
O        2.98623777       7.23147197      10.12620793
H        2.88689117       6.88395615       9.20057018
H       14.85661594       3.71457183       6.65945477
O       16.02765186      12.58153490       6.36939915
H       11.89895606       2.29748714       3.69865133
H        9.66646448       4.52055213       0.02128686
O        7.71212972      13.43898555      13.31659599
H        8.08065405      13.71693884       5.67350193
H        2.18891491      11.52725566       4.23310227
O       12.04107470      15.02973381      11.11273752
H       15.20463777      13.81212147      15.60744984
H       13.90304823      11.51347550      10.75579208
O       14.62947813       2.79663024       6.30681993
H        6.40689724       5.15757151       9.84060945
H        5.41234203      11.49108026       4.33428053
O       14.33819650       8.69475969      12.25907934
H        8.07693494       2.91958820       3.80447032
H       12.77917684       3.70285071      10.52572535
O        1.38193553       8.73364310       4.22292791
H        0.75218105       8.03316638       3.83635282
H        0.90702634       9.19166161       4.92552997
O        1.57346811       4.74846644       4.62179790
H       10.26418027      13.24357024       4.24180666
H        6.05152189       9.45676634      10.28199946
O        1.41671872      15.47536322       0.17145502
H        0.85083623      14.71458425      16.20535694
H       14.85570818       6.54258684       7.10748034
O        8.67606735       6.37482386      12.95744279
H        8.98773973       7.13030587      13.52857601
H        2.99831217       5.28369851       3.70366339
O        6.15528545      11.32579719       4.87283603
H        2.21781715       2.57077463       3.82093956
H        6.29849882      12.24842934       5.25207873
O       11.89577602       2.96077767       6.73751286
H       12.80690082       2.88396288       6.44416960
H        0.12819804       1.52360666       3.43955307
O        7.07924172       1.91514228      15.46826001
H        6.19319299       2.31449657      15.53941704
H        7.45960521       1.74457605       0.11758569
O        6.56006501       4.35559819       6.44638261
H        2.49596647      15.62596173      11.95986636
H        6.49415802       4.49817173       5.46696456
O       13.77790008       1.40701947      15.20061550
H       14.68995204       1.39714267      14.92963981
H       13.34730537       2.07291921      14.65195791
O       13.55458074       8.59458090      16.18834524
H       15.97474840       1.86852213       7.50302129
H       11.73337353       6.91532660      14.59090034
O        7.67700274       6.38207522       1.98062652
H        7.00951818       2.92412443       7.38100632
H        7.00142803       6.38901848       1.30438855
O        0.47300472       1.61709849       8.14503387
H       16.22699145       1.30624299       8.98546660
H        3.83469603       4.18782022       1.91370699
O       14.13459013      16.00015445       9.18922494
H        7.48107329      11.03824256      11.33130020
H        0.97992608       9.10166084      14.93039958
O       10.74845710      11.91243286       5.59049197
H       10.17312491      11.71222156       6.29076895
H        8.63796803      11.41315144      10.25429661
O        2.94980966       6.23017585       7.32632204
H        3.95172022       2.83350035       6.56716304
H       15.79255100       7.71802714      10.39275821
O        6.85343793      12.07635260       0.46121613
H       15.17567474       2.78106685       5.50797241
H        7.55425035      11.46416337       0.70933571
O        4.76758442       0.33171946       1.04077472
H       12.98650488       9.40356561      14.85570755
H        4.99823785       1.27646156       0.84979182
O        7.15179223       2.21188657       8.06369782
H        1.79732006      10.64185082      11.54498368
H        7.43433273       2.69109900       8.81877207
O       11.82491769      11.96977712      15.65194582
H       12.34999030      11.67355914       0.14265879
H       14.25866757      11.18414713       1.75801768
O       10.97873635       1.27607152       0.09358849
H       10.84015490       0.91047261      15.43824839
H       11.78547061       1.76857470       0.04810194
O        1.05462117       0.09793843       2.68886030
H        1.70521536       0.71322021       2.99766005
H        8.42365955       5.88088939       1.58259755
O       12.14255525       4.57952544       9.17402487
H       12.04357171      14.91191010      12.05758163
H       14.31156194      14.72021071       3.69625407
O       13.14406593      15.16378937       6.50210754
H       12.27877980      15.32701645       6.09112696
H        1.14145163       2.19578811      15.33378884
O       14.68861740      11.23158189      11.11481200
H       14.57024012      10.25539066      11.21796715
H       11.81751275      14.95602407       3.38707678
O       14.55742920       3.61999584       1.07780566
H       13.91738007      15.38511065       5.95973361
H       13.82961449       4.10653671       1.48180919
O        6.45495776       4.70086914      12.72105815
H        2.40603917       8.99196468      15.58709764
H        2.59007424      13.95936310      11.75312996
O        5.72078131      15.06313791      14.83035984
H       15.92645941      13.11390742       5.59679106
H        5.93013540      15.80783479      15.37960332
O       13.23229216      12.43547776       6.90666758
H        2.03489448      10.45268789       9.11545002
H       14.06587421      12.04667587       6.65496624
O        0.00557532       7.23849148      13.92501812
H        0.78518318       6.84992022      13.57565302
H        0.10815985      10.60324188       6.77686517
O        6.38761812      11.41505766      14.11998766
H        6.46999046      11.70521676      15.02751945
H        2.82733533       0.31813808       6.41766500
O       12.59715948       6.52486662      14.73916342
H       14.50599712       8.67471014      16.04616604
H        4.39245235       0.76559872       7.57348126
O       10.18450908      10.97302914       9.84611937
H        6.87442035       1.04092644      13.25505865
H       10.89927927      11.66076526       9.88013764
O       15.58683159       6.81445186       3.69224090
H        2.85830621      14.10207333      15.92744442
H        0.65055694       5.45034219      10.81276121
O        4.24125899       6.51547758      12.42724275
H        9.29720978      10.72556599       8.00054506
H        3.92829225       6.77560501      11.57108181
O        4.71825375      14.81668745       3.41296290
H        4.73750409      15.38884135       2.67151310
H        4.89247374      14.71264107      15.19028787
O        2.04516503      10.03477670      12.24547201
H        9.20905907       6.44543127      12.21799724
H        1.76277693       9.83354468       2.79978778
O       11.60547105      10.02206418       3.70374688
H       12.35487511      10.55747472       3.28250615
H        6.62116497       7.08928925       8.16136308
O        3.68938796       5.48384541       3.07120203
H        2.10885658       7.25026849      10.48715440
H        4.07161195       6.39723775       3.17479813
O       15.91583821       2.37623429       3.65072927
H       15.56823576       2.84374568       2.88067195
H        0.46905169       1.92311119      12.23422302
O        4.54914820       2.12228121      12.04499889
H        0.11327780      11.36777120       9.87418044
H        1.25131641      15.71418763       1.09585621
O        2.71762670      12.09744102       4.74682410
H        9.59643199      14.05304038       3.07263083
H       13.37036897      13.40192152       6.76555393
O       15.97068368      13.21312848      15.77763449
H        0.89523511       4.37493755      16.04142305
H       15.92202632      12.58785492      15.02789978
O        2.05395041       4.73608941      13.19761586
H        2.83705267       5.27988439      12.98724746
H        1.96365803       4.12785436      12.47068762
O       15.94722068       5.60261033       0.33520849
H        6.10090748      15.29598548      10.50669802
H        7.99117454       8.81388392       4.88568946
O       12.47763141      15.60851042       3.20542214
H        9.44742747       1.32348035       7.00117917
H        5.21800264       5.16341076       0.19813758
O       13.02391142       6.29194579      11.77755794
H       12.19259745       6.58769453      11.40506237
H       11.97879336      11.31838017      14.91873143
O       12.29443916      12.67984427       9.77238337
H        8.38965231      15.21976342       1.62540542
H       11.23125614      10.59114375       4.42322634
O        5.34724235       0.50141540       7.97661267
H        6.08977200       1.22081176       7.95818646
H        5.04126316       5.70729204       9.75169221
O       11.49118196       3.08426848       3.98239702
H        5.23437471       0.23305666       8.87767557
H       12.32213953      13.48858259      10.24842278
O       13.32626114      10.94319771       1.51245944
H       10.27419201       7.10194464       9.69882809
H       11.30225629       8.64802457       5.69339056
O        7.36406364       9.01790401       5.56842027
H        9.58888171       2.56504641       4.04725238
H        6.92653874       9.84056554       5.27901290
O       16.11696288       2.55401494      11.81122717
H       15.62637800       3.03314902      12.52559311
H       13.41059797       7.85990598       1.32303727
O        0.41281318       7.53757183      10.81805134
H        0.52068877       8.38432285      11.28806787
H        4.05679081      12.80679862       2.65190459
O       13.50564333       7.52300886       2.25902448
H       12.89501261       6.35836036      12.73443939
H       13.03913141       8.19494841       2.79283111
O        3.18041221       1.07830640       6.89989375
H        2.44099434       1.37813218       7.46810529
H       13.02356469       7.21184720      15.32979469
O        0.83828072       4.68530311      10.24618400
H       11.93605576       4.49360880       2.70077650
H        0.37865073       3.88381307      10.70717388
O        9.82145780       5.36178742       0.42082647
H       10.64347434       5.23049089       0.90637400
H        6.46632539       4.81427482      13.68374294
O        0.20555586       9.67099496       7.01194950
H        1.03237201       9.54772108       7.56484224
H        4.37868010       2.81173286      11.32973139
O        5.75452676       5.58687249      15.69501096
H       15.44775412       4.98446488       0.83653720
H        2.68168366       4.04535255       9.90505497
O        9.90684109       7.70325585      15.25175502
H       10.06656094       8.50960574      15.73233168
H        5.26555952       6.42108005      15.58638003
O        6.24520605      12.74587837       8.05079996
H        1.64286115       5.35943513       5.38635927
H       13.97500226       7.79726293      12.01820807
O        8.65972023       2.21605880       3.95562900
H       12.56059205      12.84523164       8.83289901
H       11.62141869      12.11854753       5.87974025
O       13.51158063      14.28670934      14.95703807
H       13.08083919      15.15123167      14.92182527
H       12.86101563      13.61053538      15.24126551
O       10.14112099       0.86833673       7.40245523
H       14.91041829       7.28521801       3.16897895
H       11.05456623       9.73629611      13.08957874
O        4.33362804       2.38584193      14.66450794
H       15.87992323      12.26155160       1.00272796
H       11.61753860       5.35257780       9.38135575
O        6.33631632       8.77405728      10.94385298
H       12.61294378       8.13448023       6.37135468
H       11.81051988       4.11172319       8.38499191
O        9.63525480      13.65004161      15.46305605
H        8.99335167      15.73635243      10.47354832
H        8.95896479      13.79211440      16.14975044
O        1.58733755       9.49404029      15.54025395
H        1.03130708       0.74368228      15.50577540
H        0.45140514      11.65691975       2.19740824
O        3.54343431       3.60078949       9.95102632
H        3.73352017       3.27931065       9.02448751
H        0.04901440       6.23818226       1.00446917
O        3.92969463      10.87000692       6.84325457
H        4.83553000      11.23869701       6.84465500
H        3.68833079      10.54537238       7.73763597
O        8.33576473       0.75272306       1.65948083
H        6.95176328       5.17977644       6.82190170
H        9.17886226       1.00037650       1.22816917
O        7.15013425      13.84879799       5.68659418
H        7.09025206       5.37875948      12.37069961
H        8.35518887       1.26594031       2.49425304
O        7.70764210      11.47930667      10.54984608
H        9.98396750       6.95679751      15.82808791
H        8.43479959      13.25269364      13.94259512
O        8.98852502       8.52419187       3.36105134
H       13.24406983       9.55821367      13.36450268
H       14.96532824       8.49121756      12.92467715
O        4.62514949       8.02310372      14.77887695
H        4.96567259       8.89362762      14.81738579
H        4.59236577       7.90421706      13.84154682
O       10.38179096       7.04913534      10.68798390
H       10.53704550       7.91201583      11.08117808
H       14.53121299       5.21510667       8.94012208
O       12.21015606       5.02743282       1.94715916
H        8.58701034       7.83089289       2.77004410
H        3.41152081      12.06684062      14.08340690
O       15.25710416      14.51420179       3.90808324
H       15.52256830      13.88141656       3.23144123
H       12.28241072      16.02555159       2.32128727
O       12.64677818       9.89914919      14.07538575
H        7.79100410      13.54223021      10.66174656
H        3.38510545       7.01406544       6.85351703
O       10.37031939      13.96888851       3.62254897
H        6.72846823      12.17146410      13.62055447
H        9.84111696       0.63185199       8.28702833
O        1.07674606      11.42471006       9.73426330
H       12.61592368       5.80811504       2.33507572
H        3.91419833       9.16841319       6.05568830
O        9.26614482       3.47337823      14.08221031
H        8.51335715       2.98895624      14.39253552
H        9.03020985       4.34301168      13.64130699
O        0.81943375      14.41083230       9.51739858
H        0.73059705       5.04121034       4.20784436
H        5.13244888       1.45096548      11.64710008
O        9.74620802       0.08765918      10.26466847
H        3.06489041       9.14681527       9.39666005
H        9.76177254       0.85992230      10.84577303
O        1.91366404      10.52395424       2.12940690
H        9.99029624       8.60146487       3.19762718
H       11.25750415      15.46829885      10.81765845
O        2.83708146      14.80798039      11.39882690
H        1.96605545       0.99394493      13.64676464
H        1.13451145      12.42038665       9.72305445
O        3.64546740      11.78267167      13.18383380
H        4.55960935      11.47070591      13.35348805
H       13.78061066      15.95011241       8.30052195
O        7.26770452       7.08229437       7.45840625
H       14.23320242       3.00013908       0.38583245
H        0.16828041      15.09424065       9.33611605
O        7.82440474      14.48216364      10.92829818
H        1.61965455      14.83894987       9.89189256
H        7.91536254      14.25658717      11.89784993
O        2.64207728       9.77055607       8.76470447
H        4.58290763       2.52573940      13.74669852
H        7.06838008       7.89830321       6.90984498
O        3.72011183       3.33409055       1.41249486
H        7.08853086      12.41911731       8.42653621
H        3.14102279       3.58361269       0.72328224
O        5.04525570       7.74215036       3.37175618
H        3.96094396       0.25042037       0.50098660
H        4.62733108       8.08080651       4.20960897
O        8.88085285      11.03981580       7.21446115
H        5.28927751       4.39071389       3.61535887
H       16.09414886      13.14214096       7.09726757
O        6.27420262       4.17549540       3.81557381
H        5.68325180      13.20891995       8.71799884
H       13.40272940      15.80789425       9.75281300
O        7.56621920       3.48813625      10.31722412
H        7.16370703       3.31430937      11.16086876
H        1.04152773      15.64885486       3.36502801
O       14.77494825       7.27403828       6.49645526
H        3.65010655      11.36153317       1.92575752
H       15.07991982       8.10528387       6.93438440
O        0.76904566       1.41830674      14.86232964
H        5.76378257       8.04150658      10.71467820
H        2.65808535      10.60147733      12.70112802
O       15.84783381      12.11404766       1.92977262
H        2.85697700       8.48664670       5.22592583
H       10.28068569      10.53001449      10.73294445
O       12.76141974       3.06290570      11.22132360
H       13.34026536       2.38169065      10.99975756
H        2.85958073      11.64222526       5.57650913
O       14.26050755       3.85208147      13.35561280
H        3.61765295       2.94055193      14.84536450
H       13.83941533       4.29621133      14.02086600
O        5.92307274       5.99736903       9.82398843
H        8.59645963      10.20937863       6.86144896
H        9.55724277       9.49326939      12.78639238
O        7.39775513       0.90034405      12.45491296
H       15.87021816       6.68731268      14.64265670
H        7.06771002       0.06030982      12.17442117
