boundary p p p
units           metal
atom_style      atomic

read_data      struct.in
mass    1   1.008
mass    2   12.011
mass    3   14.007
mass    4   15.999

pair_style table linear 3000 
pair_coeff 1 1 ../potential.table REPULSIVE_HH
pair_coeff 1 2 ../potential.table REPULSIVE_HC
pair_coeff 1 3 ../potential.table REPULSIVE_HN
pair_coeff 1 4 ../potential.table REPULSIVE_HO
pair_coeff 2 2 ../potential.table REPULSIVE_CC
pair_coeff 2 3 ../potential.table REPULSIVE_CN
pair_coeff 2 4 ../potential.table REPULSIVE_CO
pair_coeff 3 3 ../potential.table REPULSIVE_NN
pair_coeff 3 4 ../potential.table REPULSIVE_NO
pair_coeff 4 4 ../potential.table REPULSIVE_OO

fix 1 all ipi lammps  1234 unix #this is communication with i-PI

thermo          10 #output info every 10 steps

run 4000000 #run this number of steps (i-PI will stop the simulation when its max steps/time has been reached)
