384
Lattice="15.828977501112238 0.0 0.0 0.0 15.828977501112238 0.0 0.0 0.0 15.828977501112238" Properties=species:S:1:pos:R:3 pbc="T T T"
O       12.76123619      13.82193370      11.44818376
H       12.67024795      13.49558118      12.35525049
H       12.00019437      14.37256755      11.24981812
O        9.28824733       3.19556206       4.23544931
H        8.80274421       2.42036334       4.56953419
H        9.43195970       3.09066852       3.30913794
O       14.65047980       8.92174597       8.88202647
H       14.36121357       8.04933584       8.70529255
H       15.58675217       8.96237399       8.69401333
O       15.61784586       5.45967948      13.19235078
H       15.17329619       4.98045368      12.43390382
H        0.16195906       6.26099353      12.84107444
O       14.16467783      11.71827545       6.45399261
H       14.58969395      10.84843010       6.58017674
H       13.22404428      11.50315799       6.69282737
O        8.53175418       7.37964499       6.03658904
H        8.13120315       8.11827528       6.48166534
H        8.50902409       6.60240650       6.62625007
O       13.97369802      15.79513242       9.69120898
H       14.31708941      15.21633554      10.34919787
H       13.15669054       0.29623885      10.05683142
O       11.98254259      15.72827585       0.55389216
H       11.77390548      15.33129833       1.43310679
H       12.83512751       0.39314170       0.71262331
O        2.40329298      14.40333542       7.63371382
H        2.49014897      13.91331015       6.78829723
H        1.47976069      14.22589467       7.86430136
O       13.58677064       7.66499013       5.22831402
H       12.64709867       7.64342637       5.24870234
H       13.84359193       6.72330220       5.04176338
O       15.01403399      14.18579403      13.88258796
H       10.92970947      13.00615070      13.83495942
H       15.28487541      15.03592497      14.26571809
O        1.68410587      14.37156780       4.74299037
H        2.16028792      14.73841923       3.95444038
H        0.91198699      13.96305221       4.34936341
O       14.22438867       8.63192219      13.36924813
H       14.92234923       8.04241924      13.05184804
H       14.15865769       8.42531131      14.29958850
O        3.58991693       4.85582428       2.23926502
H        3.27812252       5.73959556       2.53167902
H        2.85254029       4.20388100       2.36685959
O        6.26879700      15.10149934       0.70073652
H        5.48540142      14.47918403       0.80643449
H        6.92109971      14.44312055       0.62925764
O       11.86757460       9.47623922       9.70496567
H       12.63238440       9.37434299       9.19901366
H       11.60012738      10.46445478       9.67961183
O        1.91934179       9.95286038      12.92840685
H        2.43676893      10.71521435      12.55600974
H        2.39225946       9.69467124      13.71650344
O        6.47048138      13.01973606       5.22279076
H        7.42440721      12.95565169       5.46082266
H        5.88248200      12.54594320       5.87298806
O        7.35668882       5.45044930       9.66028316
H        7.21264862       6.38358407       9.87601364
H        6.82485757       5.22387914       8.88478917
O        6.90453660       4.00986137      12.14664122
H        6.64856552       4.91189012      12.14224994
H        7.43840033       3.90924045      13.00310339
O       11.71035161       8.45537080      12.41040493
H       11.69736859       8.92710947      11.53947859
H       12.63971523       8.51386325      12.77920217
O       10.36754260      10.80822891      15.82270451
H       11.20539420      11.22320695       0.27562831
H       10.18164101      11.12528196      14.87251497
O        9.15151792       6.48100681       1.86154072
H        9.21490868       5.54467247       1.94948714
H        8.23260563       6.75578414       2.04927437
O        0.85716290      11.97875610      14.79210519
H        0.35401945      12.56165249      14.28053751
H        0.69915876      11.16839347      14.37229150
O        2.23895052       6.00005734      10.06621826
H        2.65272152       5.43066463      10.75233506
H        2.25007000       5.54327375       9.20391346
O       10.01512286       9.76447498       3.92511268
H       10.07755896       9.17816076       4.71788861
H       10.78986941      10.34002546       3.88206509
O       15.02727687      10.42823070      11.10277479
H       15.14673259      10.13734477      12.00447115
H       14.67763128       9.76707309      10.52885363
O       12.66911854      15.39408618       5.82094784
H       12.30964881       0.13397458       5.12844376
H        8.42235724      13.78864359      10.85885261
O        9.52067698       3.56842374       1.31779796
H       10.04684930       2.89356092       0.85587847
H        8.59780634       3.28957209       1.08024024
O        5.49583725       1.26652035      14.81431211
H        5.09622033       1.99741018      15.36188561
H        5.50972119       0.49044999      15.40845489
O        7.30997341       2.08075156      10.48342836
H        7.07845518       2.95219694      10.97413474
H        7.67644869       2.27123664       9.56091464
O        6.04978489       8.19272517       1.17120208
H        6.84115156       8.77857968       1.13897958
H        6.10346298       7.79572824       2.05189526
O        9.68258316       7.87473734       9.74598092
H       10.46840587       8.42805432       9.67169865
H        9.88793506       7.12676766       9.16034668
O       11.24762918      12.14332902      10.01445678
H       10.36201956      12.43913859      10.31347090
H       11.96614360      12.65881793      10.40308578
O        7.51323328       1.24669131       5.10618487
H        7.94946305       0.54542174       5.69947653
H        6.97064538       0.60402854       4.55810340
O       12.04513764       1.20048842      11.23388955
H       11.10573888       1.38338325      11.34506301
H       13.96895361       5.53173143      14.19650969
O        5.50918393       5.74500793       7.32549751
H        5.15063208       6.57211288       7.02271411
H        4.80743409       5.11960936       7.37530886
O       13.59824882       8.92474327       0.30881864
H       14.30447339       8.62549384       0.88368881
H       12.77410029       8.69119620       0.68948723
O        1.35179300      11.53255711      10.04717404
H        0.81593499      12.28597816       9.76344700
H        0.70034407      11.01377190      10.61241105
O       10.23769641      14.94194712       2.88239354
H       10.67940456      14.43956072       3.62219694
H       10.20987762       0.02938985       3.06024893
O       15.28718760       0.27291790       5.66401025
H        0.26516391      15.56832169       5.56160913
H        6.56562405       7.40623619      15.40417782
O        4.40950638       3.80347049      15.42806580
H        4.11929444       4.22379310       0.49321680
H        3.74321670       4.12864914      14.79899780
O       10.54160939       5.53447776      14.91343788
H       10.04995140       5.05142867      15.57006296
H       10.26784518       6.42227258      15.05585948
O        7.70263077       4.64250237       6.30545109
H        8.06864182       4.26210111       5.47797845
H        6.89881433       5.11262402       6.19064092
O       14.59140879       1.66601834      15.52655981
H       14.22035002       2.14415385      14.78689805
H       15.50721071       1.93070774      15.55195630
O       10.68371719      14.94226627       8.04757755
H       11.34575396      14.63717825       7.35180718
H       10.88773143       0.02474900       8.09447328
O       10.75906163       1.86343987      15.14036017
H        9.86199623       1.57112966      14.86855374
H       11.02143724       1.09438581      15.63035519
O        1.64553001       2.57103498       2.36285216
H        2.04947031       1.78392198       2.63059756
H        0.72604206       2.52259152       2.65440216
O       13.37982232       2.61077198       1.96684695
H       13.16858013       3.53816903       1.84327830
H       13.95276923       2.43165696       1.23298524
O        8.22531146      10.17194424       1.79178584
H        8.75034813       9.86201493       2.56747272
H        8.89967103      10.35825721       1.06959648
O       14.58434287       4.30970038      10.97736686
H       14.03046732       3.63282773      11.30880544
H       15.44041757       3.86331631      10.78321713
O       12.77951178       2.79475979      13.60182328
H       12.87091726       3.69024121      14.00663099
H       11.98628017       2.34928535      13.93883373
O        8.27748977       0.60741433      14.53299616
H        7.37591705       0.98729907      14.57850831
H        8.28255151      15.50219227      14.82256480
O        3.33853197      10.20996823       4.58989156
H        4.07933680      10.35709789       3.98239374
H        2.55769009      10.23129776       3.96514041
O       15.71069020       9.41718616       6.03109547
H       15.06353311       8.71169200       5.93395211
H        0.24263696       9.58531520       5.17804150
O       13.35443319       6.05050002       8.95644866
H       13.61206263       5.70023735       9.79870762
H       12.40551943       6.14352224       8.85594427
O        2.74050407       1.31305124       7.46080273
H        1.78699816       1.48302977       7.53553015
H        2.73362656       0.36999915       7.28046154
O        7.26006555      11.77575491      10.22008834
H        7.34467906      11.46809450      11.14930484
H        6.67982886      12.55559787      10.21097694
O        7.38359874       3.98680449      14.86857188
H        7.55264996       4.92519160      15.05295050
H        6.41169772       3.85703729      15.11358289
O        2.82619745      15.50221466      15.52389299
H        2.17640463       0.29385558      15.18514767
H        3.05053104      14.99733505      14.74138700
O        5.83110442      15.35942315       3.52314727
H        6.42435796      15.08901440       2.81006953
H        5.68778043      14.58090748       4.18130547
O        9.63644217       8.25766452      14.44114125
H       10.01258750       8.75003893      15.15136689
H       10.33833196       8.33585211      13.75245416
O        9.86809302       4.16327421      10.18210833
H        9.09615559       4.76392020      10.13088746
H       10.39715375       4.65345078      10.82389918
O        5.91779706      14.16750318      10.69323904
H        5.61420593      14.91754815      11.26108687
H        5.11973532      13.65486039      10.42127689
O        5.22937606       2.73761557       6.33731817
H        5.93792531       2.30349774       5.85908107
H        4.56523841       2.04957156       6.53915497
O        2.37894230       8.93266130      15.58463147
H        1.58414347       9.01483409       0.31442018
H        3.09858260       8.97487775       0.34363745
O        4.55132415      11.63293518       6.71930390
H        4.14683577      11.00568949       6.12150539
H        4.44720795      11.25907093       7.58304064
O        6.94362147       2.21631221       2.04601810
H        6.49394590       2.83510535       2.68954689
H        6.24392791       1.52350510       2.06058541
O        2.62265328       7.18827392       3.51830244
H        1.97182708       7.79101182       3.18207876
H        3.18529927       7.82770419       3.92952235
O        1.32915123       2.94701257      11.27025393
H        2.06919086       3.20361108      10.71615531
H        1.26375467       2.00130778      11.19372368
O       12.54302232      11.01214216       2.86116288
H       12.57511180      11.42552363       1.97449923
H       12.44271075      11.77833502       3.46756432
O        7.18899829      11.03231297      13.20486710
H        8.09548229      11.41704597      13.41447740
H        7.45483853      10.10652331      13.15814668
O        8.42273617      14.89272269       6.52532729
H        9.23544445      14.95782871       7.08687397
H        7.57093751      14.82550857       6.97776105
O        1.50201338       5.22954244       4.78691807
H        1.43854684       4.47995008       4.18807525
H        1.94075101       5.93261647       4.28450191
O       11.80006983      13.54404187      13.98850823
H       14.27349968      13.93610910      14.50092499
H       11.72454604      14.13301430      14.75959244
O       15.32204747      12.66041468       4.08387689
H       15.01793088      12.26660147       3.25259727
H       14.74654072      12.32164879       4.78304062
O       11.21954394       5.37991155       5.27009841
H       11.82520113       4.89443633       5.79861641
H       10.58604646       4.67139929       5.06690763
O        7.27030918       8.68135145      10.39237926
H        8.23569691       8.77834441      10.33744700
H        6.82124699       9.54528796      10.33905055
O        5.70223268       6.47489162      12.46621171
H        5.84609478       7.19640520      11.85125835
H        6.13824932       6.81780834      13.27496702
O       15.34397798       2.56359905       4.05056736
H       14.50584041       2.34640461       3.61036163
H       15.51568948       1.85454673       4.63532191
O       10.74544640      11.87199785       7.08817339
H       10.88221076      12.01484755       8.01172472
H        9.81087410      11.63042233       6.95988363
O       11.61051038      13.16596727       4.75236075
H       12.21740582      13.80133659       5.17908951
H       11.25457940      12.70299161       5.54252477
O        6.07832341      15.64198164       7.95587560
H        5.79913488      15.29806181       8.81718981
H        6.30943357       0.75673579       8.09538116
O        4.22032289       8.32889239       6.55509844
H        3.40098118       8.56007669       7.05864671
H        4.02018472       8.80538236       5.72478889
O        5.67066071      10.93164087       3.19575809
H        6.04447513      11.39372918       3.94650533
H        6.44802992      10.62619027       2.73665853
O        4.79480851       0.58512927      12.12710356
H        4.78836769       1.29300771      11.48719088
H        4.83270174       1.07640784      12.95310794
O        9.11381668       0.80906143      11.85969313
H        8.10345120       1.64069612      11.00635285
H        8.87657140       0.80796281      12.83918290
O        2.04364337       4.45772761      14.17402118
H        1.17137501       4.68213421      13.83678552
H        2.54379817       4.48297371      13.32481753
O        0.52019418       7.86623422      11.68244252
H        1.24610802       8.32132793      12.06091289
H        0.78510004       7.29974600      10.97418271
O        2.55867424       4.45530853       7.55597275
H        3.00607151       3.65589283       7.91744337
H        2.12690348       4.12433028       6.77074727
O        6.64506016       8.85944463       7.50567946
H        5.76995488       9.02543805       7.16798147
H        6.56724758       8.76478306       8.42968621
O        9.28086067      13.83336615      11.33582799
H        9.09650261      15.66341888      11.77270816
H       13.61265887      15.53314690       5.86767608
O       14.62615956       9.12710460       3.02840262
H       14.30104219       8.47378729       3.69553765
H       13.83668443       9.72834129       3.01437906
O        1.31918873       2.27620473      15.47257230
H        1.63768522       2.55506363       0.52592194
H        1.60724808       3.02650818      14.90586983
O        1.98268998       8.89503277       8.59481515
H        1.56707093       9.77895670       8.83595200
H        2.07251572       8.32331344       9.36659211
O       11.81237084       1.66410133       4.03666848
H       12.39200404       2.04057460       3.34427500
H       11.10347119       2.26271023       4.29175839
O       13.12813813       3.80150002       7.34567692
H       13.71633106       3.91184864       6.54743601
H       13.26634984       4.63355491       7.83486280
O        2.78946670      14.31424831      12.80561409
H        3.61819304      13.81654177      12.53100696
H        3.09891145      15.16051876      12.42740149
O       12.94581690      12.10551060       0.39220030
H       12.61903415      12.69066806      15.53291674
H       13.43493505      11.44416523      15.72779018
O       13.27857680       5.32925130      14.82907187
H       12.38284984       5.46081214      14.52534769
H       12.42009077       1.60581881      12.01027456
O       10.48098733       5.77165505       8.16003499
H       10.40022750       5.67257787       7.20139225
H       10.27009711       4.95190002       8.68210098
O       15.41853110      13.99408186       7.85437754
H       15.03254464      13.23724422       7.41861145
H       14.78450863      14.35331571       8.52404420
O        4.04511135      12.62583546       9.31989749
H        3.23174560      12.24673676       9.71282538
H        3.79108692      13.39403247       8.80118910
O       11.23962592       5.51490172      12.19253767
H       11.28605401       6.45273821      12.06966558
H       10.85642954       5.39086892      13.05801321
O        6.92727216       7.10032816      14.60641194
H        7.67007922       7.69257864      14.42711044
H       15.38954750       0.45965611       6.61683799
O        7.87077330       2.49216621       7.88386155
H        7.60901143       3.40120735       7.51503268
H        8.80023808       2.36754559       7.77162268
O       11.31941279       8.78893888       6.63570418
H       10.65147872       8.35816739       7.13759505
H       11.18798920       9.74509984       6.78553253
O        6.69836230       6.57618074       3.43868496
H        7.13560568       6.77256848       4.28436622
H        6.40215866       5.61104588       3.47394451
O       10.98007928       2.10785445       8.27153045
H       10.70370082       2.79542912       8.89936199
H       11.72857501       2.48138748       7.83499801
O       15.79582809       1.72521559       7.94765846
H       15.29489628       2.45440769       7.70357219
H       15.40577275       1.39750314       8.78458347
O        4.46307457      12.54626082       0.80288692
H        3.43685730      12.49293322       0.98363269
H        4.79929031      11.81396565       1.28745154
O       11.32774177       7.97354849       1.67638494
H       11.43474346       8.56399456       2.40421885
H       10.49791981       7.48518648       1.82754367
O        5.62696088       4.10681573       3.93485787
H        5.33402121       3.89390385       4.88744919
H        4.82249668       4.45826761       3.41374918
O       15.49856114       6.23668890       2.57696633
H       14.56937171       6.00658173       2.63441628
H       15.60706037       7.20545572       2.57252801
O        7.99663252      11.34603710       7.31145797
H        7.47737761      10.53055779       7.15772627
H        7.99227553      11.48377670       8.30240207
O        1.70454413      12.38075671       1.50502066
H        1.39468391      12.39717696       0.52609929
H        1.59343533      13.27156860       1.92131407
O       14.61950509       5.07391734       5.16658657
H       15.56325692       5.30155094       5.18869150
H       14.60862456       4.21979013       4.72981714
O        1.32147030       9.70555875       2.56732460
H        0.43648870       9.60260491       3.02125475
H        1.28604363      10.60216197       2.14994740
O        4.08693255       2.47925606       9.48067407
H        3.77082255       1.89877380       8.80931931
H        4.65778364       3.01674751       9.02344525
O        3.72513049       4.71926895      12.01428552
H        4.34477537       5.40074535      12.27137696
H        4.30919543       4.03305025      11.66087781
O        1.29868046       0.35099187      10.19932918
H        0.87016736      15.45584418      10.66655575
H        2.03770897      15.77415139       9.64282169
O        9.87317801      11.93343377      13.32192575
H        9.44138329      13.16015669      12.01965680
H       10.43032663      11.46038203      12.68434958
O        0.17352272      14.06952191      11.27489599
H        0.92564376      13.67270016      11.70604498
H       15.22153126      13.92138010      11.83546910
O        8.32306726      13.70264865      15.07878008
H        8.35016199      13.24860856       0.08031928
H        8.85809256      13.10170776      14.58680254
O       12.95226594       5.16014082       1.83267402
H       13.21007123       5.23830747       0.87784259
H       12.10715572       5.57516014       1.95487291
O        2.90056608      15.82538856       2.29804703
H        3.75453227       0.23379784       2.59724490
H        2.96062027      15.76185268       1.33692704
O        8.24459876      13.19570848       2.16705451
H        8.91760305      13.87191325       2.34751727
H        8.50587767      12.26838653       2.12277645
O        4.50394887      12.00248257      13.19952977
H        4.54136906      12.08119196      14.19449306
H        5.42204322      11.81936605      12.95521021
