384
Lattice="15.880233090061305 0.0 0.0 0.0 15.880233090061305 0.0 0.0 0.0 15.880233090061305" Properties=species:S:1:pos:R:3 pbc="T T T"
O       10.55101030      15.25448940      12.81723353
H       10.54658118      14.20006172      12.29395492
H       11.17117393       0.04968030      12.20380848
O       11.01266129       1.61020908       4.34741939
H       10.33065087       2.32971364       4.47127705
H       10.57256478       0.73678703       4.33029961
O       14.11226148       9.09720536       9.22837713
H       14.99597388       8.69753642       9.23630528
H       14.38193126      10.02231185       9.36463483
O       14.76101602       3.71147423      13.90831137
H       15.72905311       3.76864703      13.79620368
H       14.55562108       2.74870746      13.72738516
O       13.88115590      12.11773520       7.42940946
H       13.34237540      11.41452343       7.04424125
H       13.33125457      12.92791122       7.35426468
O        7.78200422      10.03764768       6.41234171
H        6.98462630       9.90907862       6.99240743
H        7.89951967       9.14451088       6.08795537
O       13.26952826      13.09101784      11.70014116
H       13.41869408      13.11119707      12.68077492
H       13.63349582      13.91618265      11.36191819
O       13.51341538      13.98841825       1.74877283
H       13.72896429      14.19990581       2.70357960
H       12.56141980      14.23119045       1.70329321
O        2.88337598       3.83245580       6.82965582
H        2.48690130       4.70699498       6.71585926
H        3.32684901       3.80103007       7.66654393
O       12.25176040       7.39077583       7.45573088
H       12.63417213       7.85113521       8.21525393
H       12.73924935       6.59979140       7.27082571
O       13.65789006      12.90239415      14.34216847
H        9.85951267      12.14145068      11.89983043
H       13.62343012      13.65181850      14.97102479
O        2.29432668       0.01878555       3.53222498
H        3.22834923       0.05218832       3.27294197
H        1.80703928      15.52421743       2.78588034
O       11.24430980       8.86886972      11.78672593
H       11.79676291       8.66561538      11.02437021
H       11.68248612       8.55994956      12.57610411
O        3.06536274       6.20835604       0.70769494
H        4.04806975       6.26913131       0.85447109
H        2.74866664       5.42863293       1.21129032
O        7.22469657       0.91286600       1.69140264
H        7.75444155       0.18235991       2.01840553
H        7.83995407       1.57938393       1.51360104
O        8.26326112      10.58034308       9.53232726
H        8.71867013      10.98653502      10.29912386
H        8.59552338      10.92788854       8.68408877
O        4.79834999       9.10916293       0.14849042
H        3.86830006       9.21190854       0.09644166
H        5.01218632       9.30610608       1.04359265
O        3.76769874       0.36712396       7.77683785
H        4.26378424      15.72526845       8.42518498
H        4.17011232       0.04960664       6.90362399
O        5.59338638       6.57411903       6.47411810
H        5.02994050       7.10779464       7.02318516
H        5.88667519       5.81759120       6.97635248
O        6.53947590       1.94061790      11.33552310
H        7.26619759       2.52413724      11.40616761
H        6.83162981       1.18465437      11.86730524
O        9.12249106       6.65604770      12.49545365
H        9.06069251       7.34410443      11.77522164
H        9.81732255       7.04537415      13.03978743
O       10.03513622      11.60873828      14.85495829
H       10.96390596      11.58061463      14.98009900
H        9.86461223      11.70856520      13.85318526
O        9.17390827       2.11145034      15.31592438
H        8.39610030       1.70333507      14.94964601
H        8.99798817       3.01711255      14.91867028
O       15.65112359       8.98343050      13.84811069
H        0.51237526       8.69958035      13.32631198
H        0.07138847       8.73973949      14.71991963
O        1.33116023       9.44786491       8.45884208
H        1.84962017      10.23719327       8.36893049
H        1.42236436       9.29622387       9.35531097
O       10.49612475       9.78904067       2.03257291
H       10.79744380      10.00729037       1.13953173
H        9.54373207       9.59933856       1.86322994
O       15.09925604      11.76107342       9.84509177
H       14.76301865      11.98596181       9.00891021
H       14.49761874      12.11840808      10.50486169
O       15.41096592       0.98566333       6.95847774
H        0.08239511       0.23536238       7.25667285
H        7.86985893      12.54610228      12.29688327
O        7.68447812       3.00710699       5.26822660
H        6.86226494       3.29245655       4.88291132
H        7.74970034       3.44019460       6.15867688
O        6.04772370       0.42571479      14.89414065
H        6.24908230       0.63829191      15.84390412
H        5.54779644      15.47127343      14.86122480
O       10.22184564       2.03795758       8.45866536
H       11.06792628       2.45772707       8.46306142
H       10.35134004       1.17288098       8.91211936
O        7.62181520      10.36955329       2.86744148
H        6.71637406      10.20331290       3.22827204
H        7.58030419      10.84037629       2.00622268
O        8.05123018       7.86064435       9.83271780
H        8.13794286       8.85991507       9.83907240
H        8.63518137       7.48892281       9.11063186
O       10.00324074      14.07061828       8.83460882
H       10.25423025      13.74787044       9.69603188
H        9.98533172      13.31374373       8.21578243
O        9.50793740      15.16055795       4.89835037
H        8.79865178      15.50815248       5.45849224
H        9.11900475      14.23248574       4.65258948
O       12.09587802       0.97087002      11.53761569
H       12.78579772       0.78418291      10.82683915
H       14.95630718       3.30822882       0.61269296
O        4.14782973       6.34088387       4.36818146
H        4.69125935       6.30739889       5.22599395
H        3.26549361       6.38510160       4.75995336
O       10.91039645       6.50606670       0.05762181
H       11.10460371       6.50538764       1.00676657
H       10.44800326       7.24118705      15.53980374
O        1.63779323      11.40537259      10.80914342
H        0.87693844      11.79845624      10.35053420
H        1.21061412      11.03765688      11.56048338
O       14.20936096      14.51482837       4.52221698
H       14.96120678      14.03443376       4.90856568
H       13.42757387      14.16498256       4.90464315
O        1.31367172       2.22017203       5.07962084
H        1.74480286       1.53381089       4.50163731
H        6.38293523       7.37576535      15.59933111
O        1.40861801       3.62635009      12.79733820
H        1.95749822       4.41435680      12.93741149
H        1.94443341       2.87196278      13.07725580
O        7.21490947       4.38541571      15.06391688
H        6.77634029       4.58317548       0.02387598
H        6.52177003       4.31207176      14.39686635
O        7.94125548       7.38663207       5.78674464
H        8.50547208       7.09886165       6.50518917
H        7.04253576       7.01315357       5.97438953
O       12.47860272      15.51825956      15.19453732
H       11.90281437      15.31366443      14.49283891
H       12.03708189       0.29734838      15.81452090
O       13.69125004      15.41119915       9.73851330
H       14.68829090      15.42101936       9.67037552
H       13.38650896      15.03625113       8.88827074
O       11.77159924      13.52306638       4.86706082
H       11.41509264      13.74121368       5.75458812
H       11.26203164      14.01863307       4.25376043
O        3.19759866       2.15287439       0.83208154
H        3.61439831       1.75351519       1.59553832
H        2.68553843       2.91954095       1.20358106
O       14.09299331       1.23002646       3.12790546
H       13.22608024       1.63658776       3.22863009
H       14.13880744       0.35861833       3.52008501
O       13.87174291      11.26179677       1.98205648
H       13.21944708      11.00702674       2.72497597
H       13.86786003      12.21280147       1.84092270
O        0.49681964      15.41162249       9.98799859
H        0.70394078      15.03645547      10.87898343
H        0.68575202       0.45335751      10.18400339
O       11.10264800       1.37126488       0.93849999
H       11.56619914       2.21105635       1.07079902
H       10.25319040       1.58273165       0.57897677
O        7.99467053      15.74518600      12.97168741
H        7.34890184      15.71742061      13.73155842
H        7.71225923      15.01755827      12.40608670
O        3.28232179      10.31425428       5.16213898
H        2.80781425      11.11585083       4.83330916
H        2.68204955       9.56738161       4.89099666
O        1.52845817       8.14990542       4.86386032
H        1.20616738       8.51605947       3.98764031
H        0.78703712       8.48264390       5.44228565
O       13.93507551       5.23011714      11.26693340
H       14.28723508       4.92169276      12.08481012
H       14.66296805       5.76163217      10.90267413
O        4.73026022       3.45414804       4.61438987
H        4.14859750       3.43669509       5.39352298
H        4.42864497       4.32332955       4.23808451
O        4.18431397       9.03421706      11.01401557
H        4.57593139       8.13474322      11.28545138
H        5.03550688       9.50044002      11.11051268
O        4.07725545       2.00846449      13.21963999
H        4.57311367       2.76536018      12.91515286
H        4.60765514       1.65570697      13.96322830
O        1.44629305      13.97336097      11.82022090
H        1.62362157      12.97055885      11.56239350
H        1.10811693      13.85988435      12.72161138
O        5.09773979      15.41796234       5.58126930
H        4.97775133      15.61156851       4.63308962
H        5.46832313      14.58140417       5.70245503
O        9.87945667       8.68608596      15.01470863
H       10.03072015       9.55648023      14.65890355
H        8.91545636       8.56248943      15.04823325
O       11.87214580       3.50458362      12.25786942
H       12.05781032       3.81745777      13.14904081
H       12.34836409       4.18884277      11.71883679
O        7.81465318      15.85484364       9.04200654
H        7.75066240       0.31318221       8.18868149
H        8.64713491      15.38813743       8.98067433
O        7.42086625       0.58348602       6.47808469
H        6.54101788       0.23084970       6.21003110
H        7.44742178       1.43808096       6.01293059
O        5.18453735       9.49988706       3.50259008
H        4.67886038       9.88329950       4.21461526
H        5.42567340       8.60258408       3.77152642
O        1.67758185      12.31489995       3.64343558
H        1.26980002      12.65589496       4.45519824
H        1.50399916      12.90314615       2.89116374
O        5.78135448       5.94032363       1.85170737
H        5.15378189       5.93888661       2.59163460
H        6.32903482       6.67724386       2.13209250
O        1.01590044       5.43850243       5.28973616
H        0.88794773       6.31659383       4.98060615
H        0.17815861       5.02281189       4.93810245
O       15.61088552       2.19958867      11.07002803
H       15.40556215       1.63768759      11.88620406
H        0.43523473       2.82605037      11.40307395
O       12.62503898      10.74308103      15.70121551
H       12.93318015       9.91167949      15.35623781
H       13.05348710      10.74942211       0.68856633
O        6.83162553       9.73907085      12.66521456
H        7.60424085      10.18221721      12.34234475
H        7.07010904       9.04675638      13.30722091
O        8.28131573      12.64566325       4.36251270
H        7.87849964      12.79670667       5.26822094
H        7.97024948      11.81818586       3.99057653
O       14.73205069       3.90494617       4.58321609
H       15.27074568       3.15847459       4.34078316
H       14.04288107       3.98149663       3.91807232
O       10.48314111      13.12763202      11.63517435
H       13.26144561      12.11098940      14.73397131
H       11.40681480      12.97814255      11.90510204
O        0.92626371      13.73925047       1.49745176
H        1.27897676      13.90544363       0.64302455
H        0.02569612      14.06473464       1.47763746
O        9.59093082       6.80769878       7.85124638
H       10.52269859       6.89412055       7.62092850
H        9.47709830       5.93710707       8.22430516
O        5.67257619       6.68567498      10.78820138
H        6.44166122       7.01828819      10.28696404
H        5.09078851       6.20659543      10.09800679
O        4.98460043       4.93632519      13.24480691
H        5.33337482       5.64923124      12.67458708
H        4.12083836       5.26665535      13.58854963
O       14.70326444       1.58135547       0.38956161
H       14.42940110       1.11090093       1.21404881
H       15.51613805       1.11539380       0.15297198
O       10.32103359      11.67515760       7.09816388
H        9.61487344      11.29111815       6.62534250
H       11.07397180      11.03580260       7.13790021
O       12.20856273      14.54770078       7.44707176
H       12.34798755      15.43283538       7.09401338
H       11.36262712      14.58627565       7.91802580
O        6.71552283      13.51280625       6.74892783
H        6.79088211      14.22303077       7.36706723
H        6.40409892      12.71412618       7.28492787
O        3.71537803       7.90163103       8.18296312
H        3.76338112       8.17240835       9.11763927
H        2.93097876       8.40289341       7.88741769
O        7.82334968      14.13906455       2.17963432
H        7.85916306      13.53598400       2.94742921
H        7.63358789      13.57003898       1.38348169
O        3.88363666      15.29084492      12.04872031
H        3.99930557       0.28942930      12.36353576
H        2.93729881      15.09757119      11.85868199
O        8.78226731       3.93958847      11.97964062
H        8.83735089       4.87195800      12.23045075
H        9.57417644      15.56865886      12.82685480
O        2.53078623       5.96219457      13.77094551
H        2.36583577       6.77860351      13.23233973
H        2.40457199       6.24258199      14.71843231
O        1.87471570       8.21018697      12.33448965
H        2.61660583       8.77411888      11.98800335
H        1.60147422       7.66484333      11.57480090
O       15.42560708       9.34155430       6.19409141
H       14.45270811       9.43544396       6.16072839
H       15.72948288       9.06406265       7.07900926
O        5.78980645      11.47487085       8.03947048
H        4.77423318      11.46456475       8.06673073
H        6.02269743      11.14099105       8.92247301
O        7.29872234      13.32614280      12.25043366
H        9.73703889       3.70498974      11.86385320
H        0.05420853       1.26993646       6.15583223
O        0.55772008       9.73268809       2.77201640
H        1.13785896      10.48539894       2.90161874
H       15.60931241      10.21666308       2.73054277
O       15.01848197       0.60900640      13.59321364
H       14.30325982       0.15849890      14.07336003
H       15.77520149       0.51610228      14.25304329
O        2.67312283      11.66215795       7.74432918
H        2.27274170      12.52333921       7.94123954
H        2.58600248      11.54530250       6.83208601
O       12.61723140       1.12132448       6.50105355
H       12.03276202       1.37240623       5.73311043
H       13.51610999       0.94242964       6.18540296
O        0.03617355       6.04805870       8.03442318
H       15.05503698       5.68659556       8.03347948
H        0.34864057       5.90309600       7.12120667
O        4.58459459      14.10114738      14.50838677
H        4.93912897      13.18542321      14.52312487
H        4.33292262      14.27478766      13.60593379
O       13.00722024       8.06597100      14.14872096
H       13.82230327       8.40855223      13.80342182
H       13.17382307       7.09289183      14.09424635
O       15.14580314       4.21003547       0.88687195
H       15.32563347       4.72707826       0.11987497
H       12.10329332       1.92173598      11.72783038
O        8.81856967       4.33176186       9.06980068
H        8.86686659       4.48873121      10.07881463
H        9.29095663       3.41268691       8.99085864
O        0.41209233      12.83980927       5.92415030
H       15.51988547      12.30459457       6.21315378
H        0.66971869      13.39264132       6.67388706
O        4.67854411      12.31908155      10.75089368
H        3.81040459      11.91661612      10.64872952
H        4.67263601      13.24682141      10.48436234
O       12.32045120       4.65812051      14.76676888
H       11.76635648       5.32363864      15.18345894
H       13.08378142       4.55194043      15.32586662
O        7.27407112       7.51289307      15.41432482
H        7.61516416       6.68245491      14.97579837
H        1.95233589       2.50525012       5.70708083
O        6.67647403       4.44694078       7.68261933
H        7.41807451       4.29062356       8.29414807
H        6.02213004       3.82769435       8.01092562
O       12.55378387       9.72782195       6.41447423
H       12.58803885       8.75417217       6.64309811
H       12.16895934       9.84130854       5.54838912
O        7.64525252      11.58699862       0.35919167
H        8.53503655      11.57884784      15.84759431
H        6.92653757      11.85644981      15.70595421
O       13.02134021       2.74871417       8.57540771
H       13.85945312       2.49103372       8.99472862
H       12.96471801       2.17828675       7.78466655
O        3.81390848       4.92259657      10.34955533
H        3.97525243       4.07278618       9.94863432
H        4.29382419       4.84881152      11.17009252
O        4.72989516       1.22624422       2.96240111
H        5.55622339       1.21833577       2.44785824
H        4.70206298       2.06033977       3.38064837
O       10.98417148       6.82374081       2.76536786
H       11.22714636       7.73726071       2.63855732
H       10.05821629       6.91668021       3.04156744
O        7.99081365       7.31331351       3.12988076
H        8.15078029       7.23433542       4.09027382
H        7.92659084       8.25057067       3.07280189
O        1.93330445       4.17653536       2.07471772
H        1.02667305       4.20380161       1.69603906
H        1.81374536       4.10648347       3.04270791
O        5.31786728      14.97643066       9.55013700
H        6.28688623      15.15543026       9.50919661
H        5.07570676      15.36357175      10.39704687
O        1.87844991      13.43434918      14.72638917
H        2.82979451      13.60772014      14.74999422
H        1.76234139      12.50651532      14.39307559
O       13.49272938       4.94852351       7.15045542
H       13.80409904       4.60539048       6.31067557
H       13.32455314       4.18360486       7.74170221
O        1.98849953       8.59740271       0.49186124
H        2.11361025       7.65420873       0.76489843
H        1.44694462       9.01548654       1.19272307
O        5.07115342       2.52264965       9.20568062
H        4.80960162       1.71164501       8.76146490
H        5.60995178       2.21148270      10.01088518
O        0.88207507       6.47725600      10.40570783
H        1.69968393       6.00797491      10.55675374
H        0.70225988       6.62403938       9.44356903
O        1.61329631      14.35914921       7.82419296
H        2.37828926      14.89391575       7.57967009
H        1.45508777      14.73389534       8.68621407
O        9.12738893      11.11289446      12.21524506
H        6.41535638      13.05814379      12.09868518
H        9.62876334      10.24078253      12.26958710
O        0.30766883      11.48696242      13.55255850
H        0.15834620      10.56823064      13.87943713
H       15.39072431      11.97727510      13.85184543
O       11.01583890      15.07279696       2.32071094
H       10.20460279      14.82094566       1.86173509
H       11.05725809       0.09534850       1.97867797
O       12.51859397       4.11449415       2.33004143
H       13.32319045       4.34414490       1.90073504
H       12.14530766       4.92576852       2.59645633
O        1.35742320       0.29387676      15.37515740
H        1.98134730       0.85271614      15.86257550
H        1.75331091      15.26807852      15.35173075
O       12.11304189      10.94288091       3.97294555
H       11.33508201      10.73941075       3.42307816
H       11.93788595      11.82459097       4.34125651
O        5.30436374      11.46011685      14.38958320
H        5.30095994      10.71105475      15.04600014
H        5.69578290      11.13385015      13.55095131
