384
Lattice="16.132896553973517 0.0 0.0 0.0 16.132896553973517 0.0 0.0 0.0 16.132896553973517" Properties=species:S:1:pos:R:3 pbc="T T T"
O        9.90353684      14.61124079      11.85214409
H       10.25092037      15.27353836      11.23278918
H        9.51399487      15.15062550      12.62360092
O       11.51963735       0.58635437       4.54340403
H       11.29567281       0.71445952       5.50618877
H       10.82943129       0.88846849       3.95311614
O       10.21905282       8.92254717       5.38066328
H        9.78173169       8.93124247       6.26393048
H       11.14547741       8.96273512       5.66204423
O        5.35644240       5.91689086      13.62972685
H        5.20735711       5.24487608      12.92022404
H        4.79861039       6.65786506      13.39227424
O       15.09434910      10.40695741       2.20266368
H       15.40740319      11.30514195       2.23758748
H       15.69361801       9.87410829       2.72396920
O        5.20376873       7.24863201       2.79377214
H        4.31905939       7.03851088       2.52155579
H        5.17541836       7.43901104       3.74235106
O        3.47987148       1.04085150       7.33929405
H        2.60797241       0.57387507       7.31721953
H        4.02791137       0.42983729       7.87932518
O       13.19100456      15.61224771      15.13493142
H       12.89121512       0.45734557      15.13163456
H       13.56296510      15.34889072      14.26686917
O       14.14763282      12.66641488       7.18757502
H       13.58965915      12.74643817       6.37612638
H       13.58538701      13.14714667       7.74953619
O        2.24291639       6.95251553       2.51263858
H        1.72997437       7.51268115       3.12304323
H        2.27959811       6.09132454       2.83620410
O       14.72593341      12.56392574      10.46557087
H       12.95026869      11.55342398      13.52962016
H       15.00353697      12.95719101      11.35135757
O       13.12949080      14.76071924       3.19778154
H       13.17012686      15.56705043       3.82400723
H       12.36563073      14.96425646       2.65202104
O        2.55068012      11.91019705      14.20767395
H        2.18959292      11.37967927      13.40916835
H        2.09535113      11.59111496      14.99545719
O        6.99583186       3.85361875       0.96740396
H        7.36857279       4.72490433       1.26712132
H        7.35787743       3.68966927       0.14567684
O        4.90498075      13.14288276      15.55122232
H        4.27731196      12.70662350      14.98054944
H        5.75005710      12.64274947      15.49363466
O       12.11603196      11.57939013      10.18624396
H       12.96265460      11.55857918      10.69532302
H       11.56359209      10.96534635      10.64331398
O        0.60218656      10.14330198       6.24442404
H       15.91853509      10.16238030       6.83546714
H        0.89961418      11.03602237       6.16596207
O        5.17086941      15.43386235       8.47169734
H        5.49492570      14.73704313       7.86990420
H        5.51344959      15.14943103       9.40662720
O        2.79303910       4.90156933       9.53564018
H        2.95010005       4.02240962       9.86079275
H        1.92418650       4.94541251       9.07163506
O        9.88497637       2.54240707      12.08699109
H        9.84161230       2.53091299      11.09172522
H       10.66332170       2.05573221      12.22980280
O       10.99235067       9.44914417       1.22633125
H       10.98232951      10.27819423       1.72960718
H       11.90929326       9.38116027       1.00256753
O       10.24556583       9.90288180      12.46899774
H       10.49024201       9.13340186      12.99107728
H       10.61156245      10.65584868      12.92149488
O       11.08097354      14.99709909       1.19293875
H       11.96944951      14.86434294       0.76390513
H       10.70483613      15.71681731       0.64150695
O       15.22944831       0.41787930       1.35548478
H       14.61630574       0.29205776       0.65046320
H       15.57236214       1.32991560       1.24493621
O        1.72822055      10.25964813      12.20779268
H        0.84337840       9.92188372      11.89023045
H        2.11235795      10.73520935      11.44527646
O        8.82962709       9.21300746       8.42307911
H        9.18086254       8.73167130       9.16594001
H        8.86132360      10.17366609       8.61394672
O        1.21997071      14.37929649      13.70179697
H        1.48576400      15.01575538      14.37800772
H        1.58178357      13.54642161      13.97679702
O       11.63489271      15.28355017       9.32564598
H       11.55152266      15.81662300       8.48744929
H        7.64927161      12.44595874      12.04270008
O        9.08473002       3.48925529       4.03283747
H        8.15280839       3.67808963       4.27596337
H        9.45457398       4.31417647       3.75913107
O        4.77320282       1.00430558       1.11381069
H        3.93421795       0.79866954       0.67730034
H        4.85816869       0.35010452       1.85112514
O        8.79984775      15.45440472      14.35288784
H        7.84189209      15.29372077      14.42209529
H        9.16638814      14.65129379      14.85361424
O       10.35884986       5.60524357      15.46387108
H        9.59030463       6.06150703      15.71123580
H       10.01757861       4.87374649      14.88571698
O        7.65491753      11.05380193      13.28075897
H        6.85075675      10.70010305      12.98843405
H        8.31883645      10.41601797      13.05941201
O       12.70101789       8.31002272       8.86737737
H       12.54015073       7.88702687       9.70930037
H       11.92940603       8.83340231       8.76882101
O        6.75527639       1.60649906       8.29199184
H        6.30025891       0.77139319       8.44807113
H        5.98463058       2.21187581       8.41041329
O        1.30524940      15.68202581       8.32846533
H        1.79936405      15.64886939       9.11538606
H        1.13076968       7.31402234      10.90797341
O        3.19381886       6.01795348       6.29828884
H        3.87829149       6.44988036       5.81796861
H        2.80432067       6.71974828       6.89063355
O       15.54793637      13.63599125       2.12698410
H       14.72025728      14.04137006       2.56859521
H        0.03680466      14.30421238       1.80886346
O       14.81187617      10.19999799       8.34428811
H       14.52514036      11.10721039       8.12100009
H       14.06950431       9.65742870       8.05772812
O        8.36236602      15.20822250       3.40273211
H        7.33444416      15.18616086       3.50110201
H        8.42238363      15.92381898       2.75317714
O       15.65149429       1.73004878       8.36609089
H        0.04684364       0.88087697       8.19708713
H        9.40499123       2.67343856      14.99283273
O        8.78021139       1.95135382       1.95783091
H        9.09585572       2.40498893       2.74830875
H        8.03442176       2.49009731       1.69661758
O       12.57300255       1.84295579      12.75139304
H       12.59141330       1.97267064      13.73829148
H       13.06930846       2.54317085      12.34240875
O        9.72852427       2.44644997       9.09482036
H        9.86893495       3.39505305       8.88590844
H        8.83492044       2.15996400       8.79168184
O       14.81205320      14.44542238      13.13254034
H       14.90320153      14.92496364      12.29534674
H       15.73605705      14.42375509      13.50136919
O       11.44218891       1.39957864       7.15702552
H       12.36469708       1.90696964       7.14219534
H       10.82401493       1.80522056       7.79559178
O       11.94609452      12.06916105       2.05105645
H       12.58788165      12.43517200       1.38222640
H       12.33279524      12.22209511       2.94098321
O        6.33527426       4.11320058       4.65754284
H        5.78208419       3.93504500       3.91591358
H        5.83948335       3.90399759       5.45423318
O       11.62596657       4.96410486       3.44853952
H       11.94799390       4.67957247       2.56958149
H       11.27480917       5.83843820       3.17815655
O       12.63699717       4.73626262       0.48011020
H       13.37390493       5.36859742       0.23114050
H       11.84528815       5.08882799       0.09601367
O        0.44051576       4.42181760      12.47224023
H       15.68680047       4.20259884      12.24150754
H        0.63773579       5.28465111      12.07355735
O       15.18625292       6.23480085       0.14616675
H       15.75181700       5.54933348      15.94471565
H       15.25534954       6.06546013       1.08447226
O        5.41366516      14.95367139      11.12534471
H        6.00175959      14.25448664      11.25295506
H        5.76869856      15.68791737      11.71863961
O        2.99700810      11.44759461       2.73872988
H        3.70484988      11.99710140       2.47438420
H        2.68259086      11.13418911       1.89351520
O       13.10664964       9.45732116       5.31398926
H       13.28217154      10.32626859       5.03021700
H       13.74375317       8.84366125       4.90961705
O       12.87500394       6.89364028      11.49150931
H       12.09887062       6.99228303      12.04623298
H       13.47240594       7.58584319      11.80034977
O        0.64159309       4.49658375       7.95682181
H        0.33563891       3.63169941       8.25688522
H       16.07583212       5.03344598       7.55764300
O        6.83788904      13.76761427       6.98407662
H        7.40244319      14.55325754       6.75366535
H        6.98850257      13.00332290       6.43461803
O        9.96943136       1.03735157       0.10060849
H        9.35356087       0.63837485      15.56050637
H        9.37366836       1.53266945       1.05950938
O        1.91849071       0.38250887      15.30823387
H        2.48876095       0.97391372      14.64754175
H        1.10985063       0.90216571      15.39686126
O        5.80493897      15.47748273       3.00476391
H        5.42557476      14.59989416       2.92535747
H        5.29802159      15.83538290       3.73352185
O        9.02102036       8.11309280      15.65818972
H        8.44142814       8.42951319       0.26623878
H        9.84477264       8.61437000      15.67851760
O       11.42256347       7.73563459      13.95832240
H       11.10680173       6.95542017      14.42026553
H       12.34662290       7.66758780      14.13556916
O        1.62035835      13.32084149       7.01082530
H        1.13525060      13.41062330       6.15103262
H        2.45551700      13.54037819       6.61693847
O        1.33574957       1.41362245       3.87404811
H        1.24360199       2.24896107       3.45594815
H        0.61256034       0.85565217       3.49134039
O       15.28692194       9.55817049      11.17286359
H       14.85250662       9.85650267      10.34523926
H       14.78096953      10.04734343      11.81691591
O        3.86453109      10.93513328       5.50696424
H        3.45540015      11.74117016       5.77755541
H        3.74457679      10.88878481       4.56475825
O        4.05790559       0.34384470       4.71984041
H        4.04237491       0.68007666       5.66168302
H        3.34362055       0.81308873       4.26619887
O        5.76528839       9.29683576      12.38561435
H        6.48403397       8.68737515      12.44750584
H        5.03402235       9.00657780      12.98847671
O        2.26247958       4.68191234       3.82504668
H        2.50522796       4.87803260       4.72709170
H        2.96384750       4.14967013       3.34919285
O       13.84255359       2.68712035       6.65904146
H       14.07396225       2.37171719       5.79461181
H       14.48356944       2.16586366       7.22898512
O        7.85964585       7.14180093      13.11264690
H        8.40162867       7.31702158      13.89640605
H        7.12893966       6.55412499      13.33882843
O        8.50812004      12.07856984       8.90577392
H        7.79042079      12.65060781       8.54284645
H        8.38143661      12.23518633       9.82287165
O       13.81979571       9.99885069      16.08478686
H       13.79392900      10.97972991      15.83690673
H       14.34236362      10.08904590       0.81572180
O       13.76835828      11.38333613      13.15900743
H       15.54592538      12.38848328      10.09950174
H       14.19304127      12.26297265      13.26449947
O        4.14789045      13.70246985       5.35947478
H        4.07985285      14.65706363       5.05086647
H        5.05702258      13.56448061       5.63399036
O       12.90926032       4.88443021       7.84701869
H       13.50940281       5.51476623       8.10942850
H       13.45382720       4.16227078       7.46098170
O        6.03542488       8.11419879       8.27147636
H        6.22374533       7.55487585       9.04522577
H        6.78423272       8.76460377       8.33993340
O        3.58984754       8.36414871      13.58228627
H        3.13344776       8.33017438      14.35875583
H        2.94192946       8.50617725      12.85280058
O       14.23505399       7.99785618      14.03393409
H       14.74735040       7.49491217      14.63409621
H       14.06167229       8.79781049      14.57541861
O        9.49929781      12.48669861       2.59709013
H        9.33925883      13.33646710       3.04612353
H       10.38659706      12.57169285       2.22259160
O        8.55615457      15.96350306       6.08329625
H        8.42433795      15.87843577       5.12088874
H        8.18018847       0.67235736       6.36352640
O        5.17222996       3.88962901      11.79335419
H        5.32375325       4.35810392      10.96301055
H        4.17533010       3.73761839      11.72177496
O       15.25178882       6.83984801       7.47924694
H       15.04477530       7.44004030       8.21468707
H        0.02224311       7.15295830       7.21841155
O        5.21551982      12.78726289       1.97084740
H        5.93672339      12.18105714       1.89139532
H        4.93233315      13.09161345       1.02269042
O        2.06246755      14.47201550       1.05291162
H        2.02208241      15.36573579       0.62623883
H        2.60219588      13.86259768       0.51701946
O        6.41537294       1.34783344      12.74673912
H        6.08546949       2.07597156      12.18523605
H        7.35691987       1.46477586      12.98069133
O        1.15663999       4.69310909      15.07906457
H        2.06067701       4.46834060      15.19631426
H        1.01371236       4.50031645      14.17018020
O       13.59221842       4.25299753      11.29300750
H       13.42935374       5.17669815      11.56160531
H       13.36402373       4.21645068      10.35184628
O        4.37671107       3.59242818       2.10162016
H        4.39275011       2.66041585       1.93451507
H        5.31762077       3.85414336       1.87654058
O        4.83568129       7.95202470       5.57291410
H        4.24760642       8.63237536       5.92296322
H        5.45664057       7.78828702       6.33271701
O        7.66443638      13.17954887      11.38807416
H        8.51042165      13.61193424      11.55567177
H       11.47248488      14.39864794       9.04328706
O        0.23409694       8.79040294       3.95128474
H       15.78682898       8.07270541       4.23609559
H        0.52711187       9.29319301       4.76396278
O        3.82928479       1.79729342      14.00461761
H        3.84137796       2.69198433      14.26915237
H        4.70813952       1.55296443      13.68897866
O        1.72161135      12.04792599       9.79263300
H        2.12415913      12.92701564       9.84119139
H        1.44599152      12.04699500       8.86900265
O       13.96693430       1.57347843       4.02092530
H       14.18347615       1.22679765       3.07288329
H       13.01426340       1.25653910       4.19859376
O        9.88367348       7.99505959      10.48288114
H        9.76218172       7.20121074      10.97109214
H        9.57268572       8.73850078      11.05369637
O        5.96110914      15.64274874      14.80186911
H        5.45671704      14.86063664      14.88489202
H        5.82231850       0.03694737      15.60883938
O       13.71666116      12.88745479       0.10972363
H       14.39627977      13.17609897       0.68118222
H       13.40725607      13.67200485      15.71893708
O        0.57927032       7.14291381      11.68586841
H       15.98590986       7.80487979      11.64194413
H        1.30448401      14.78841889       7.83417959
O       10.03706175       5.02527106       8.78863906
H       10.09729395       5.19755121       9.72231583
H       10.89532342       5.08031160       8.36939354
O       10.98107273      12.78157343       7.69289159
H       10.02820229      12.67894013       7.78264728
H       11.39956780      12.18801152       8.34131022
O        3.29536055       7.60347255      10.38566905
H        3.84281329       8.37464346      10.56221394
H        3.96663955       7.04923075      10.02307139
O       12.34057636       2.20945627      15.40355572
H       12.56720999       2.96993707      15.95492429
H       11.40681754       1.94169647      15.66528243
O        8.71573511       3.24226949      14.53026828
H        8.81044324       3.03557326      13.55198784
H       15.38635361       1.52911126       9.23911971
O        5.68500775       5.16994439       9.42842335
H        6.45887905       4.76796124       8.97186156
H        4.90418237       5.03111179       8.88459758
O       12.45466217      12.74851388       5.03568465
H       12.44489498      13.68917614       4.67385052
H       11.74977211      12.70548444       5.67429389
O        7.56310446       6.34163606       1.76961961
H        8.32263438       6.77091827       2.17768193
H        6.74019987       6.65420101       2.14835180
O       14.26071056       0.15039601      10.68066743
H       13.69521077       0.55666097      11.30359174
H       13.68185712      15.90614396       9.97649677
O        1.69676500       7.97499342       7.88160540
H        1.43872141       8.80074789       7.38492189
H        2.16959447       8.16080253       8.68900532
O        6.86109202       9.56249307       1.69021136
H        7.44377122       9.84104302       2.41548542
H        6.24107650       8.91979455       2.11048534
O       10.15833916       7.30469475       2.87999226
H       10.20228105       7.62234773       3.75510006
H       10.45594367       8.03444551       2.25254430
O        4.58603251       3.55055937       6.77569912
H        4.16132868       2.74843977       6.99450478
H        3.96347879       4.31169163       6.93651552
O        1.96646189       7.48903613      15.84297238
H        1.68821079       6.72956023      15.32945057
H        2.03265754       7.19495782       0.60254072
O        6.54255711      11.53487567       5.63513993
H        5.70447078      11.02103959       5.59014745
H        7.19290144      11.12835479       5.08914650
O        0.88370447      12.49230539       4.53264363
H        1.63316291      12.06552968       4.09465209
H        0.34783121      12.87119310       3.77569035
O       13.93871735       6.24532815       4.48829208
H       13.83692320       6.04151508       5.45116437
H       13.15428781       5.76061685       4.17589432
O        1.59516570      10.26173849       0.10372326
H        1.69585188       9.31713209      16.11794621
H        0.87847345      10.46865503       0.68613490
O        2.53598681       2.88185373      11.53600914
H        1.73405896       3.41352362      11.71736766
H        2.37433137       1.97053038      11.75104451
O        9.97865153       5.45168401      11.97792812
H        9.18855064       5.81130310      12.35019973
H        9.97281856       4.50908469      12.12998151
O        4.02022707       4.37520968      15.29945973
H        4.55271161       3.93456839      16.00077441
H        4.55929106       5.07433504      14.89869746
O       11.05373493      12.29334331      13.62038601
H       10.83063010      13.03037192      13.05920745
H       10.65190505      12.51916719      14.48459271
O        2.46744455      15.74473384      11.27893883
H        3.40263264      15.58561300      11.11785413
H        2.23637501      15.39856165      12.13503355
O        9.65058624      13.36550386      15.85028941
H        8.87743594      12.94132781       0.12949778
H       10.17652910      13.82433516       0.43292292
O        0.17377757       2.99221616       1.13681641
H        0.44177957       3.54290018       0.34995736
H       15.78982813       3.57889498       1.68683720
O       15.58000881       5.14013554       2.71245581
H        0.28696549       4.87694326       3.21986383
H       14.98025696       5.25009573       3.41771650
O        8.36436857      10.33500964       3.98929884
H        8.69869138      11.10098811       3.44664104
H        9.10288391       9.91162555       4.40995828
O        7.31675470      11.65241766      15.87436094
H        7.43004686      11.32380437      14.91519754
H        7.01606817      10.92837317       0.26107666
