384
Lattice="15.943389953103992 0.0 0.0 0.0 15.943389953103992 0.0 0.0 0.0 15.943389953103992" Properties=species:S:1:pos:R:3 pbc="T T T"
O       11.64426183      15.64993814      12.07340737
H       11.55929081      15.03649160      12.89556759
H       12.44546981       0.21839244      12.18247498
O        9.52342743       3.21746811       4.01117878
H        8.88180420       2.57023484       4.37224837
H        9.11973115       3.35180652       3.13481185
O       14.00199774       9.05776334      10.21152896
H       13.89377623       8.10471273      10.30665892
H       13.30869209       9.34168731       9.68332016
O        0.26328540       5.42038219      13.09710453
H        0.27120300       4.64719998      12.56784235
H        0.55072497       6.15664490      12.59151458
O       15.46602784      13.36093575       6.19373196
H       15.61393275      12.40542559       6.35782564
H       14.62683586      13.35844006       5.74467223
O        7.98127067       8.69079677       4.35298131
H        7.37754849       8.79485728       5.12234744
H        8.62221501       8.02617833       4.58166695
O       14.31249646      13.72502998      10.24179671
H       14.31887317      13.92352920      11.17697528
H       13.73665696      14.33938973       9.69267008
O       11.89077995      15.51335576       0.88148694
H       11.54082512      15.30898646       1.79718021
H       12.85199612      15.58843338       0.96418907
O        2.78172995       0.07528828       6.73209896
H        2.39839926      15.63170833       5.94362204
H        2.34393871      15.49724435       7.42345937
O       11.98663777       8.94482259       7.42655808
H       11.19462576       9.50045988       7.60591591
H       11.74429605       8.05743523       7.20685582
O       14.57547424      14.41816596      13.30084864
H       10.75056314      13.46303671      14.06513203
H       14.73127108      15.32781871      13.64994850
O        1.63314497      14.89729341       4.36914556
H        2.36262481      15.00680239       3.75658316
H        1.20845030      14.05124206       4.28759737
O       13.90027834       8.29539980      13.82150793
H       14.42056783       8.76896529      13.12690982
H       13.75899774       8.89178072      14.58251853
O        3.58150699       4.36996162       2.50666509
H        2.96138768       4.88771289       3.04836711
H        3.42490655       3.43145215       2.49710626
O        6.15149952      14.16126380       0.01426705
H        5.62321832      13.39149167       0.04054247
H        7.07775618      13.99211783      15.75092908
O       11.48693594      10.63310823      10.94828062
H       12.28720545      10.57984729      11.49376990
H       11.49978558      11.59944264      10.67575454
O        2.72389160       9.75724417      13.31681270
H        3.08157324      10.59463423      13.19091863
H        3.19873957       9.52191387      14.12728770
O        5.42963182      13.27244381       5.69885904
H        6.02435646      12.74517178       6.23609496
H        4.53401638      12.96427433       5.91836947
O        7.03431423       6.11254188       7.72064851
H        7.08421862       6.65994319       8.50067928
H        6.09368580       6.17326860       7.37773395
O        7.42230770       3.11189155      11.59051367
H        6.81760976       3.77895833      11.22637421
H        7.53500433       3.34913783      12.52220224
O       11.03015339       7.83980587      13.16642974
H       11.02740941       8.25195228      12.25121392
H       11.98560043       7.85403558      13.34915313
O        9.50115905      10.59790342       0.38584166
H       10.29630565      10.89021494       0.78569540
H        9.50587923      11.07508495      15.46828264
O        9.96296289       6.50353536       0.37147423
H        9.54165306       5.69102789       0.63965631
H        9.29392273       7.02089228      15.82164710
O       15.33437431      11.28632788      14.69017636
H       15.08021797      11.68245770      13.82283328
H       15.78916961      10.44762305      14.56836856
O        0.69012052       7.25616311      10.13161730
H        1.62675362       6.90854490      10.07882797
H        0.16725989       6.47130329      10.18733200
O       11.96372780       9.55469635       4.55150084
H       11.92253346       9.19885157       5.46909311
H       12.89756349       9.48099023       4.43315339
O       14.23146165      11.33553807      12.12456872
H       14.83401560      10.59407884      12.01560466
H       14.26513342      11.91048255      11.34770258
O       13.19705820       0.38404783       5.87863339
H       12.87570393       1.21786352       5.46272286
H        7.96279967      13.86230810      11.62143604
O        8.37968376       4.16679017       1.52303102
H        8.33445672       3.34650272       0.95126245
H        7.42454222       4.23116079       1.83211587
O        5.75320626       0.28460430      14.34808242
H        5.78812007       1.04392002      14.95960565
H        5.80556065      15.34599006      14.84092171
O        8.55252857       0.79325227       9.45352950
H        7.75770369       0.61762054       9.94695113
H        8.39079062       1.54313468       8.83688022
O        4.05292439       6.22619716       0.22563381
H        4.13519310       5.53970583       0.90153265
H        3.38047719       6.78599540       0.49831210
O       10.29029036       8.28623672      10.60680175
H       10.57712798       9.18198907      10.47806556
H       10.82892673       7.60531545      10.18650113
O       10.85437765      13.37076446      10.49185446
H       10.03766714      13.62628216      10.92590031
H       11.48130955      14.08073529      10.70490284
O        8.60812566       0.83775199       5.00780511
H        8.64835313       0.62539059       5.98666863
H        8.01352796       0.23907640       4.58632631
O       12.88948594       2.05168953      11.80057830
H       12.91375361       2.13647365      10.84051952
H       14.39413208       5.51810656      13.65829026
O        4.54572046       6.32125650       6.39667366
H        4.11646970       7.22600861       6.39595908
H        3.82858256       5.63853815       6.59309946
O       13.26374055       9.04226536       0.47390295
H       14.00452192       9.27015882       1.06483755
H       12.67814178       8.52948291       1.07935341
O        1.76733144      11.94192849       9.70682789
H        1.36581332      12.66196926       9.19755020
H        1.47031239      12.13239651      10.65439540
O       10.71980516      15.28384911       3.39418193
H       11.28735487      14.83206194       4.04855700
H       10.54074336       0.16187580       3.86701904
O        0.22167579       1.41000022       5.85834042
H        0.69684740       0.74959342       5.34442190
H        5.76357423       6.63430552      14.90902289
O        5.13024819       2.81473335       0.24770365
H        5.31211002       3.07288056       1.17564985
H        4.20058628       2.80547164       0.29304539
O       10.36662272       4.38423547      14.82866129
H        9.45050621       4.04137585      14.70403662
H       10.30536428       5.27515649      15.13400504
O        8.94820157       5.86577437       5.36871677
H        8.97739534       5.01052228       4.89218380
H        8.14873507       5.82773382       5.91558902
O       14.65902379       1.30398424      13.99896040
H       13.81506547       1.70097244      14.27116796
H       15.35828463       1.59585419      14.53549363
O       12.88335925      15.38497520       8.78888035
H       12.91485533      15.38938779       7.80134007
H       12.69006252       0.40778074       8.87411065
O        9.57926323       1.52112437      15.69911137
H        9.26501295       1.30674441      14.78658797
H        9.91722169       0.73892273       0.14603635
O        3.02924775       1.94242322       1.89034089
H        3.30621442       0.99867614       1.82725324
H        2.08618388       1.94090197       2.09413106
O       13.76356168       2.75835212       1.79682797
H       13.90846117       3.70304639       1.65000326
H       13.22559206       2.62971361       0.97822454
O        7.71248077      10.97491138       2.47941273
H        7.98684619      10.35500861       3.10102738
H        8.27173049      10.75711071       1.68033523
O       15.82566699       2.89689684      12.12638789
H       15.25362947       2.30338871      12.59844187
H        0.01934770       2.59009632      11.21218584
O       12.47547250       2.44973640      15.24156536
H       12.31112848       3.41851735      15.14606007
H       11.57069432       2.04634128      15.20708699
O        8.25797680       0.61216051      13.38467783
H        7.38884357       0.35472530      13.72673262
H        8.62879451      15.67121111      13.16699875
O        2.69026964       9.80239439       3.97273119
H        3.57995978      10.01575083       3.65181589
H        1.98785366      10.38837401       3.64037949
O       14.56997848      10.48753510       7.24141731
H       13.68576668      10.12647294       7.32650974
H       15.10669422       9.94171705       7.85419193
O       14.10349480       5.00385482      10.62253543
H       13.81506928       4.95978378      11.53684653
H       13.32499811       5.41043302      10.23194836
O        3.44118656       2.48650067       7.39788378
H        2.84273788       3.21692458       7.10200613
H        3.03678466       1.62803666       7.22683060
O        6.37607717      10.28704739      10.64197329
H        6.80690456      10.44100114      11.49739385
H        5.79447909      10.98843507      10.41417440
O        7.49808341       3.83050622      14.41182766
H        7.14004120       4.76637575      14.59019653
H        6.67647455       3.34039026      14.58535329
O        2.85348130      14.69038381      15.10243746
H        2.36885104      15.47699586      14.98142100
H        3.32733957      14.49678662      14.28249777
O        6.21330304      15.12277976       3.80831810
H        6.51115562      14.56342878       3.07560203
H        5.83341346      14.52759257       4.44885422
O        8.72393370       8.51915959      14.68758679
H        9.00695597       9.12629244      15.36752893
H        9.53544157       8.41506325      14.12012108
O        9.91195224       3.82346512      10.19900562
H        9.01858063       3.70988920      10.60080080
H       10.37122358       3.81842507      11.01080400
O        6.00170156      13.81383602      11.00732325
H        5.91780555      14.72951086      10.73479010
H        5.88169286      13.24827549      10.21906244
O        6.07392625       2.56406864       5.95757786
H        6.14059222       1.79445813       5.41281873
H        5.29078916       2.52822449       6.52857097
O        2.48037782       8.65760651       0.58255189
H        2.05208949       8.99997538       1.39639454
H        1.85281443       8.79833691      15.76420226
O        2.99490824      11.89443190       6.44461044
H        2.63968163      11.21683334       7.02712079
H        2.63483971      11.75444289       5.56558071
O        5.79423169       2.55884004       3.06042212
H        5.72503598       3.27352546       3.76727019
H        4.96149168       2.18831098       2.94109139
O        1.98855486       6.65284189       3.57455460
H        1.38942531       6.88727393       2.87330273
H        2.00154328       7.50674034       4.05664286
O        1.99265233       2.87377450       9.89537392
H        1.70999696       1.96716071      10.11186260
H        2.56757201       2.79092770       9.12702662
O       13.70294598      12.16053497       3.34300392
H       13.15096122      12.02477545       2.55532066
H       13.14365765      12.53674111       4.10897084
O        7.53087323      10.60335784      13.17381348
H        8.23720710      11.28370846      13.20849983
H        8.03761229       9.84947989      13.57196106
O        7.71474653      14.56886846       7.18381106
H        7.14343244      14.81213540       7.92284526
H        7.20428115      14.26473675       6.45904742
O        0.47781911       4.64519497       5.26725581
H        0.47961630       3.66508049       5.28387390
H        0.85042966       5.01269160       4.48081357
O       11.52472805      14.09628854      14.16207807
H       13.64915050      14.15071329      13.45766050
H       11.38594016      14.65112676      14.92361118
O        0.97002507      12.46258399       2.84291620
H        0.90300939      12.81945243       1.94652169
H        0.09778151      12.03699741       2.96269776
O       11.38454438       6.39496984       6.71698561
H       12.09324385       5.75623897       6.39057176
H       10.65380385       6.24571129       6.15540894
O        7.44898304       7.89767064       9.69251242
H        8.38345232       8.03054337       9.80128228
H        7.02842438       8.75967250       9.84444470
O        6.13182464       5.89832233      11.52929555
H        6.56919133       6.56529606      10.98815895
H        6.16472257       6.20673260      12.45641282
O        0.42945408       1.49254473       2.19210928
H       15.69815098       2.13011684       1.83535513
H       15.85412424       0.90063011       2.74677037
O       11.11343566      13.33382801       7.62931381
H       11.39380137      13.38330917       8.55603064
H       10.20479453      13.74802242       7.75120271
O       12.25645012      13.92066223       5.19378175
H       12.64209064      14.78045788       5.34677080
H       11.55384542      13.88346972       5.90946600
O        5.65888826      15.72275271       8.66970763
H        4.86511719      15.41627141       8.28998349
H        5.58759739       0.65201245       9.05809856
O        3.65051345       8.92115888       6.41486951
H        3.11383104       9.19183946       7.11195667
H        3.11605905       9.14586978       5.60856456
O        5.01268828      10.09803151       2.60444597
H        5.84101455      10.55160802       2.61249981
H        5.28315121       9.19137603       2.25189590
O        4.94586829       0.39252478      11.75545161
H        5.10979895       1.24603561      11.42996326
H        5.30427091       0.37101959      12.67054433
O        9.93248241       1.37206828      11.71533467
H        9.50399200       1.25659089      10.84180538
H        9.26105251       1.35846429      12.40539273
O        1.78287640       4.58742811      15.30120862
H        1.40962735       4.94168753      14.49451913
H        2.70578371       4.81118580      15.37235704
O        0.14292660       9.34637318      12.13562880
H        1.00604881       9.56198634      12.47440687
H        0.46956436       8.79035872      11.41591762
O        2.40961092       5.03897043       7.44351756
H        2.36948340       5.12941001       8.41639497
H        1.55519278       5.08320742       7.04892789
O        6.50479666       8.85338348       6.66530696
H        5.57117387       8.88380002       6.39947067
H        6.48347423       8.14631202       7.30952960
O        8.79344403      14.07918217      12.09298704
H       10.66576023       0.55088755      11.94920390
H       14.12252768       0.54011396       5.85855863
O       15.05002439      10.36490042       4.31761693
H       15.07765745      10.40065072       5.30015914
H       14.45825942      11.05487493       3.94994502
O        1.62349000       1.70922231      14.42940939
H        1.67218472       2.55499436      14.83897197
H        1.52959317       2.01470304      13.50985462
O        1.66965412       9.34499024       8.42663217
H        1.62421042      10.04134871       9.11723625
H        1.08826713       8.67129111       8.89439917
O       12.20724670       2.53579777       4.27845870
H       12.54283772       2.61123459       3.33678886
H       11.25959363       2.80939931       4.27862419
O       14.50883492       3.51541769       8.30033744
H       14.10296524       3.83138848       7.50080302
H       14.33253362       4.09289200       9.05300381
O        3.90090523      13.51602770      12.80668360
H        4.29692891      12.79685526      13.30284364
H        4.48589171      13.76104189      12.08844752
O       12.28022004      11.64207191       0.93347760
H       12.17742860      12.03783000       0.03097326
H       12.42601512      10.70674020       0.67328285
O       13.65604072       4.97738980      13.85682999
H       12.85748465       5.07340590      13.34099737
H       12.96868402       2.90512068      12.16163845
O       11.60399792       5.86447554       9.47575969
H       11.41876926       5.92944967       8.52587140
H       10.87003678       5.27451011       9.81006142
O        1.12573684      14.45805912       8.39287046
H        0.61152240      14.23469595       7.59651969
H        0.55954583      14.99179150       8.92076388
O        4.80325857      11.99237591       9.20720572
H        3.83812620      11.92313027       9.18084486
H        5.32957298      12.11969236       8.43134391
O       11.18123347       5.06562945      12.43273375
H       10.89430740       5.97464613      12.63807526
H       10.98994516       4.58880303      13.28740274
O        6.56033151       6.36301750      14.45390458
H        7.20518977       7.07223587      14.64337712
H        0.42830017       1.07408996       6.77966338
O        8.10748200       2.90037460       7.77811308
H        8.18973908       3.84830560       7.78577555
H        7.43235964       2.67893255       7.20606737
O        9.91648851      10.76901140       7.03475652
H       10.15223067      10.85033229       6.09886467
H       10.36618045      11.57521961       7.32048561
O        6.32529649       7.76943231       2.15593926
H        6.88700498       7.99040331       2.92410185
H        5.99459540       6.90388176       2.32043232
O       12.12250094       2.03731989       9.10282836
H       11.24827238       2.50056894       9.18617680
H       12.79722311       2.65692309       8.74217140
O       15.61142080       1.05473615       8.74920456
H       15.35693743       2.00990599       8.79215853
H       14.85055979       0.61933526       9.09436978
O        4.07732021      11.97805206       0.79855578
H        3.09358552      11.95714726       0.64145011
H        4.29646569      11.21062558       1.35496267
O       11.60409897       7.51794894       2.36695748
H       11.55760620       8.11197269       3.12385272
H       10.76829372       7.50610788       1.96868510
O        5.93303088       5.40823993       3.66845867
H        5.58428086       5.70123480       4.49779114
H        5.23843008       4.93447124       3.23743109
O        0.52296601       5.99435161       1.40454834
H        1.12457947       5.79314048       0.69289205
H       15.57485874       5.95169295       1.07190822
O        6.80359525      11.74856930       7.53661628
H        6.70634883      10.82345986       7.27304196
H        7.73082553      11.92183427       7.75889284
O        1.52425991      12.47092307       0.10201234
H        0.83818486      12.28012266      15.44599091
H        1.92289102      13.32965129      15.71195656
O       13.61887222       4.52713375       5.97238327
H       14.52506087       4.83144917       5.71618883
H       13.20175133       3.98829071       5.32739511
O       15.45420406       9.01974265       2.03577823
H       15.65243834       8.11154437       2.09294375
H       15.34991011       9.44463146       2.87488762
O        5.55808334       2.39382075       9.38872240
H        4.93676644       2.74585667       8.71329795
H        6.46011454       2.59328257       9.15985564
O        3.13947799       5.63247873      10.32943100
H        4.00134903       5.81520378      10.61032472
H        2.98222787       4.76653443      10.75834649
O        2.31442463       0.27543589      10.83770492
H        1.97055668      15.38636378      11.07370040
H        3.17984732       0.25328771      11.32273363
O        9.85262621      12.26881953      13.84741249
H        9.06599582      13.32076102      12.59962151
H       10.54942140      11.59595370      13.74065584
O        1.17592389      13.53819549      12.02764589
H        1.93861091      13.53535739      12.58437883
H        0.37436340      13.89128916      12.48541652
O        8.79288151      14.04943011      15.70685970
H        8.96986585      13.73730607       0.69913912
H        9.12641413      13.23407009      15.23564222
O       13.58635330       5.48438476       0.65505297
H       13.49900675       5.42772092      15.65017416
H       12.89140538       6.06523808       1.03163591
O        3.75556548      15.10800388       2.53515808
H        4.58636036      15.32375402       2.92302489
H        3.82610641      14.58993058       1.76691470
O        8.73334255      13.53467216       2.44785146
H        9.15288575      14.00734127       3.18292414
H        8.23742076      12.77912466       2.77567728
O        4.93189702      11.44479973      14.09644385
H        4.78446474      11.66826780      15.03319948
H        5.85311113      11.16854997      13.91225814
