384
Lattice="15.925946596106993 0.0 0.0 0.0 15.925946596106993 0.0 0.0 0.0 15.925946596106993" Properties=species:S:1:pos:R:3 pbc="T T T"
O       11.63966040       0.14989393      11.98528932
H       11.58998225      15.37220616      12.57739301
H       12.39980900       0.69318583      12.17106265
O        9.78647374       3.70973771       4.27479342
H        9.30477485       3.20303615       5.00425770
H        9.52143200       3.11892131       3.52835392
O       14.70478265       9.28323757      10.01829848
H       14.22508940       8.56166526      10.43741869
H       14.26818067       9.41568761       9.16332080
O       15.39053685       5.70151920      13.23213834
H       15.66980938       5.00764780      12.59007282
H       15.78880239       6.56327883      12.99799128
O       15.36889292      13.02128296       6.33286417
H       15.40700303      12.09545923       6.12228327
H       14.43396470      13.14766516       6.13770363
O        8.90425380       8.99765847       5.72737469
H        7.98745947       8.83490165       5.52607552
H        9.30186981       8.12321611       5.87510818
O       14.35248336      14.78659600      10.66060659
H       14.23569457      14.92078962      11.65006318
H       13.70754688      15.38103840      10.25551543
O       12.69800080      13.80987446       0.55353993
H       12.30632172      14.06088236       1.39959041
H       13.33581172      14.47251312       0.26827959
O        2.12345344       0.21723778       7.03849478
H        2.26210541      15.19445616       6.71216699
H        2.33523766       0.04207051       7.98199766
O       13.16085308       9.70527107       7.42235144
H       12.43605618      10.33745105       7.28745051
H       12.86098424       8.86463369       6.93402256
O       14.33992098      14.51961403      13.27475415
H       10.58682420      13.28856070      13.73079674
H       14.42535299      15.15701408      13.96727698
O        1.48802907      15.57531279       3.13837849
H        2.35103348      15.71909002       2.69663353
H        1.37819643      14.60670733       3.20712719
O       13.00760072       8.30299131      13.34244268
H       13.93617523       8.46428762      13.06828774
H       13.00473410       8.46020669      14.30511560
O        3.91553113       5.17088757       1.69460913
H        3.65422896       5.90669538       2.21517422
H        3.11246561       4.51848933       1.68289240
O        5.58440488      14.45159213       0.16665724
H        4.96943571      13.72937311       0.25701127
H        6.33332314      14.06326819       0.71799709
O       10.42244576      11.33244862      10.85473129
H       11.28785661      11.69635372      10.76525032
H        9.87882668      12.03129320      10.53568247
O        2.50850605       8.61477693      14.87920199
H        3.12665133       9.34595577      14.80984670
H        2.26123309       8.70674182      15.83242666
O        5.10665632      13.42510140       6.13327788
H        5.69559111      12.77739278       6.51156047
H        4.25559713      13.39583763       6.59425514
O        7.20678925       5.22882389       7.48179167
H        7.21157998       5.67024328       8.30899129
H        6.42484846       5.57012758       6.99541227
O        7.43858515       3.60610382      11.17172060
H        6.85451595       4.36604739      11.02982901
H        7.34340095       3.44289914      12.12111221
O       10.48817698       7.28250232      13.07298117
H       10.08853331       7.55666238      12.28292352
H       11.44737599       7.58376068      13.01468170
O       10.06874204      10.38455096       0.06641563
H       10.94026456      10.56344090       0.40451978
H        9.86876947      11.08162888      15.23205461
O        9.37856988       6.19317187       0.98196505
H        8.76381400       6.02527649       1.70082693
H        8.98491986       6.81717330       0.30666271
O        0.44362684      11.27959920      15.16295344
H        0.46524159      11.49299323      14.20385255
H        0.92829784      10.49737103      15.26534775
O        0.84153741       6.36624222      10.35612639
H        1.53209596       5.73567534      10.20973418
H        0.04300088       5.83489778      10.41800639
O       11.77478585       9.16101329       3.94326560
H       11.37199232      10.06878732       4.03008965
H       12.67289756       9.39709749       3.64710703
O       13.03818869      12.11658215      10.24345723
H       13.67731616      11.38275604      10.21930112
H       13.53568635      12.90814515      10.37726706
O       13.31857890       0.62981983       5.84570221
H       12.79231452       1.35564199       5.38199295
H        7.53209701      13.52561234      12.19463199
O        8.50245136       1.89764750       2.40598019
H        8.85701251       1.46646628       1.59529332
H        7.66915161       2.25120386       2.02686861
O        5.74926036       0.56336005      14.33600715
H        5.52803528       1.40318869      14.83138113
H        5.61376488      15.76581002      14.97160717
O        9.01692819       1.35640574       9.21061718
H        9.53146654       0.57428818       9.16171886
H        8.81238173       1.62131048       8.29931073
O        3.94591055       6.28402704      14.97425328
H        3.99465785       5.93654258      15.86787771
H        3.42173290       7.06911312      14.95223246
O        9.80088384       8.64355953      10.63533099
H       10.14347844       9.55447888      10.76138288
H       10.52690435       8.31514210      10.08480274
O       10.16225992      14.54749522       9.75279858
H        9.48135078      14.65738936      10.43130870
H       11.01800855      14.52774326      10.14451221
O        9.33977859      15.78139746       4.02885149
H        8.71800418      15.63573014       4.76890439
H        9.06202744       0.70871241       3.63169853
O       13.12142411       2.62933605      12.11573029
H       12.68225818       2.84473623      11.27849939
H       14.21828264       4.18213003      14.69993216
O        5.34326606       6.08288371       5.61672875
H        5.52277922       6.86820502       5.15847504
H        4.43089407       6.15704585       5.96323682
O       13.41826210       8.44332756       0.02603552
H       14.26326358       8.46505758       0.50287942
H       12.77102401       8.02364253       0.60274340
O        2.17329858      12.21885621       9.95245820
H        1.57095754      12.83786708       9.51120920
H        1.84625710      12.07200279      10.83495286
O       11.67001622      14.44772239       2.96652244
H       12.20592062      14.21333865       3.75265791
H       10.91519431      14.98459682       3.33521503
O        0.31530665       1.32736276       5.08776408
H        0.61794779       0.58690484       4.54220368
H        5.28803874       6.45523256      14.01131606
O        5.32987442       2.93317761      15.91142956
H        5.49359755       2.86039248       0.97073600
H        4.45459274       3.30123126       0.01957567
O        9.66572283       3.49419801      15.59470938
H        8.87158675       3.62771864      15.06184610
H        9.75345719       4.32990024       0.16707600
O        9.41070958       6.25808177       5.67930465
H        9.65398324       5.55501290       5.04637652
H        8.98016534       5.77965064       6.43596396
O       14.19328049       0.39217565      15.27144802
H       13.45893589       0.90672459      15.51799333
H       15.01507594       0.79204774      15.65271146
O       12.97211358       0.59818431       8.62407380
H       13.24602945       0.55708289       7.68111717
H       12.49906458       1.44468685       8.60230115
O        9.18372174      15.92539777       0.31239813
H        8.84988188       0.12501224      15.35156884
H        9.25296954      14.93901401       0.44416553
O        2.17179161       2.96494632       1.43837121
H        2.65209604       2.16683405       1.55486459
H        1.24690759       2.75320328       1.64505766
O       12.80206628       2.36418101       2.19614988
H       13.16022074       3.04501971       1.62882714
H       12.31421136       1.86288669       1.54492774
O        8.94392544      10.78974486       2.72287006
H        9.23420868      10.17810598       3.39884525
H        9.31783810      10.53722729       1.81118444
O       15.74183005       3.13215062      11.79959055
H       14.82263578       2.70424534      11.70154691
H        0.35035831       2.73911137      11.14410836
O       11.55120885       1.39249438       0.06311484
H       11.26670603       2.33170457      15.84179351
H       10.79414446       0.81126487       0.07008886
O        8.20216725       0.36979133      13.45343169
H        7.35421848       0.49918107      13.79710011
H        8.26356391      15.32342519      13.20687077
O        3.20793378      10.77231736       4.22078993
H        4.06966450      11.09986089       3.99352685
H        2.51768534      11.34007355       3.90880197
O       15.67694506       9.86429476       6.24459714
H       14.80891373       9.87864764       6.67399502
H        0.38516324       9.85870566       6.92001940
O       13.77643408       6.49417240      10.83774550
H       14.22885463       6.49257340      11.68552889
H       12.92116804       6.87234269      11.03613711
O        3.85096448       2.28253619       6.33081788
H        3.18151447       2.93338985       6.06636485
H        3.34553507       1.45280037       6.49955455
O        5.61912157       9.40515203      11.49971375
H        5.98906551       9.71680154      12.32965481
H        5.20028851      10.13825688      11.13118436
O        7.26077752       3.85924502      14.15677332
H        7.03595821       4.79036132      14.04990870
H        6.53331289       3.53793192      14.72776902
O        2.23472796      15.58401843      15.18524715
H        1.86892184       0.54657535      15.02777805
H        2.52207114      15.25588901      14.35554441
O        5.54679489      15.13524273       3.84927045
H        6.28889561      14.54646377       3.72545045
H        5.04465750      14.65529895       4.52788221
O        8.78694825       8.05812370      15.20636113
H        9.40923499       8.67858728      15.53918877
H        9.34975329       7.82631345      14.42387581
O        9.94848186       4.70021188      10.51398389
H        9.03544820       4.42643687      10.79972533
H       10.42339389       4.85069008      11.34329515
O        5.91007583      13.32042113      11.35428702
H        5.82492192      14.24704927      11.05172616
H        5.58652911      12.85042575      10.53523642
O        6.19808656       1.75446879       4.67842536
H        6.18242744       0.82023832       4.44292761
H        5.37068402       1.84308796       5.16035793
O        3.71148187       8.28205439       1.80250871
H        4.63250493       8.44263874       1.61170922
H        3.48271600       8.70268697       2.57581532
O        2.19424694      13.24589937       6.12157006
H        1.23762004      13.48524413       6.06169957
H        2.38392402      12.90561847       5.22516234
O        5.87557703       3.64994211       2.61556738
H        5.95782728       2.94650143       3.33109337
H        5.05168406       4.09294097       2.70193069
O        2.56547337       6.62367654       4.08251061
H        1.79513965       6.81085553       3.59269921
H        2.55045339       7.13590711       4.89817372
O        1.82680027       1.95125239       9.67194323
H        2.20230837       1.10555047       9.88018494
H        1.10317621       1.92133042       9.01784654
O       13.96930481      11.99770531       3.61738218
H       13.40792364      11.63701408       2.86280022
H       13.43480318      12.29025684       4.36299372
O        7.00110077      10.19608388      13.93022505
H        7.79022854      10.79238321      13.76299019
H        7.49261583       9.37717123      14.10791746
O        7.73849577      15.00339655       6.16916870
H        7.29308741      15.29599393       7.04260635
H        7.25752005      14.24300584       5.92800594
O        1.18300057       4.07093087       5.18599616
H        0.87147003       3.19625994       4.92520342
H        1.34907507       4.44035513       4.31284129
O       11.47217888      13.72415571      13.86099767
H       13.51280913      14.00402305      13.44376793
H       11.64594832      13.54290046      14.80374088
O        1.17354868      12.55597242       3.09252719
H        1.24744935      12.70976462       2.15580130
H        0.26127532      12.47623177       3.33995872
O       12.28630058       6.98349381       6.73235495
H       12.92023220       6.25411034       6.49659011
H       11.69884147       7.04238745       5.93603366
O        7.27402674       7.93873614       9.78446982
H        8.22301594       8.10442362       9.92523620
H        6.82357825       8.49462006      10.45205263
O        5.72841735       5.84147099      10.88089730
H        6.07218109       6.69657617      10.47621433
H        5.82031590       6.00689689      11.83475908
O       15.82118123       1.49384357       2.00719472
H       15.16312363       1.72920359       2.66857981
H        0.45230493       0.73220880       2.32231485
O       10.12668261      13.65265588       6.94817486
H       10.10950850      13.88194372       7.84458563
H        9.31540311      14.04720513       6.51386202
O       12.74216679      13.80070284       5.51005157
H       13.06603085      14.74531536       5.58323587
H       11.88544300      13.86533158       5.94605402
O        6.26721972      15.28371025       8.61633230
H        5.37790855      14.98530386       8.51399043
H        6.15371241       0.25546777       8.91679519
O        3.31589858       8.91087007       6.39459760
H        2.73672910       9.14869681       7.13769391
H        3.26448473       9.62194304       5.71165696
O        5.82157992      11.07278899       2.98830811
H        6.55080309      11.36740545       3.48389612
H        6.05729585      10.18323962       2.75038240
O        5.51885883       0.42948064      11.56193064
H        5.33074348       1.30726350      11.08348005
H        5.36801502       0.55946690      12.53088480
O        9.58147219       1.75148666      11.90891327
H        9.14374629       1.73878505      10.99529215
H        8.96065100       1.20629628      12.55633736
O        1.07548658       4.85473173      15.29706137
H        0.42825409       5.09004954      14.66895467
H        1.87506921       5.40169974      15.08968787
O        0.20978450       8.33371906      12.79306923
H        0.78383293       8.67186489      13.49647610
H        0.82053964       8.29786302      12.04572658
O        3.00863056       5.61941847       7.07510974
H        2.91434322       5.59819172       8.06245175
H        2.14257571       5.41197103       6.70902681
O        6.23553115       9.07406879       7.25021453
H        5.37929939       8.78915604       7.03394491
H        6.38606239       8.60267333       8.07235720
O        8.37515995      13.86199190      12.49855404
H       10.42278538       1.17140405      11.91765341
H       14.19169812       0.91629285       5.64712290
O       14.83920696       9.32147925       3.45839395
H       15.24865467       8.93391723       4.25066662
H       14.92628706      10.28281888       3.61436322
O        0.97328344       1.94974426      14.77970339
H        1.07956079       2.81661731      15.23725960
H        0.67165668       2.21664601      13.91734828
O        1.60245986       9.65389297       8.86242386
H        1.62848429      10.28464743       9.56904930
H        0.87394162       9.08658197       9.22161344
O       12.30434408       3.07073893       4.83888393
H       12.63596755       2.93277766       3.91923144
H       11.36320654       3.34312325       4.73157686
O       13.88720755       4.65765611       8.49844317
H       13.97417049       4.82308733       7.52430690
H       14.10593205       5.45554010       8.96745310
O        3.42059992      13.55179940      13.23966089
H        3.78340984      12.77190607      13.71649836
H        3.95002732      13.58482492      12.41979630
O       12.80203212      11.19576690       1.11416011
H       12.88741475      12.05831232       0.75122673
H       13.18673044      10.52729023       0.52003617
O       13.37357115       3.92657045      15.09244011
H       12.70177240       4.26018987      14.51828574
H       12.97501248       3.34087014      12.78654120
O       11.34074107       6.83379374       9.48362309
H       11.87291993       6.79489676       8.67489286
H       10.71471384       6.12719090       9.47753758
O        0.12907009      14.18966291       8.79041209
H       15.63454344      13.79841998       8.08161208
H       15.43158129      14.37493132       9.53839995
O        4.70483973      11.54280211       9.38495368
H        3.75348420      11.68251108       9.27175392
H        5.10975110      11.00597807       8.72157082
O       11.11395066       4.66118128      13.24493142
H       10.64226314       5.55326352      13.27083300
H       10.59953656       4.08880957      13.80042630
O        6.09720059       6.39406254      13.46788843
H        6.39817335       7.27996265      13.29972860
H        0.69497708       1.15315232       5.94036067
O        8.09254644       2.83132191       6.56418670
H        7.44817388       3.49257485       6.80648773
H        7.56293620       2.27677213       5.96317827
O       10.86825151      11.13104846       6.11452502
H       10.18184837      10.48678284       6.32974930
H       10.59971650      12.03000266       6.23751586
O        6.55893792       8.54004264       1.65471721
H        7.18151341       8.75558303       0.89207352
H        6.94600924       7.74102454       2.11408051
O       12.02329288       2.93982659       9.49565497
H       11.08477936       3.21583776       9.46705369
H       12.47330436       3.67819645       9.08421226
O       15.61328717       2.12059305       8.21491187
H       15.12896282       2.91753876       8.53279048
H       14.97411362       1.44206459       8.42150330
O        4.17925683      11.89383761       1.06561841
H        3.25789469      12.07614505       1.11744340
H        4.54205128      11.66082101       1.92179262
O       11.65846551       7.29357294       1.85680883
H       11.47804817       8.05141674       2.42204763
H       10.86688007       6.88487018       1.47968125
O        7.57639057       6.16035251       3.17506808
H        7.84373155       6.20188744       4.08277478
H        7.04926078       5.35299497       3.16142480
O        0.23532830       5.80135563       2.12750755
H        0.74894199       5.54586868       1.32303120
H       15.20962766       5.74228200       1.93426126
O        6.95152825      11.63714580       6.33516061
H        6.71255589      10.76329806       6.66077733
H        7.89052558      11.62249537       6.11594341
O        1.83298863      13.07370642       0.51323390
H        1.27231843      12.39071711      15.89916844
H        1.78953147      13.95365979       0.03626300
O       14.29739853       5.16973689       5.61091602
H       15.21304160       4.81805282       5.49111299
H       13.75834045       4.41419074       5.33012290
O        0.06984267       8.41839992       0.98615710
H        0.07045629       7.61506848       1.58209232
H       15.80789127       9.13938110       1.62619561
O        5.42859465       2.15566787       9.18228081
H        4.86890479       2.29133799       8.34864970
H        5.92633634       2.96708062       9.26006882
O        3.05716450       4.77403786       9.77691481
H        3.88130859       4.89144904      10.24507093
H        2.83225177       3.83921441       9.68280453
O        3.32098353      15.27903982      10.03219018
H        2.56571882      14.84344596      10.39018548
H        3.88382330      15.53776571      10.76775631
O        9.33635167      11.80454760      13.91948500
H        8.68133702      13.12789482      13.08297606
H        9.80190996      11.18529071      13.36050749
O        0.97776834      12.44263605      12.60600128
H        1.78416138      12.93768694      12.81781327
H        0.26456805      13.09492492      12.66282671
O        7.77258899      12.83544278       0.95480018
H        8.14387940      12.40537630       1.72348928
H        8.07540854      12.49697089       0.07323653
O       13.51289464       5.31612720       1.71117509
H       13.46047631       4.83647725       0.83901316
H       12.82422247       5.98633313       1.81875481
O        3.76745872       0.41367431       1.75789098
H        4.26519380      15.82878959       2.36482383
H        3.48121911      15.78909685       0.96722922
O        8.52729819      13.12128896       3.92257787
H        9.03111014      13.88326208       3.63816096
H        8.92998684      12.34213291       3.55650726
O        4.26308155      10.98084397      14.60245135
H        4.31525506      11.19118803      15.57724025
H        5.18261592      10.81248715      14.37760466
