384
Lattice="15.984938695976744 0.0 0.0 0.0 15.984938695976744 0.0 0.0 0.0 15.984938695976744" Properties=species:S:1:pos:R:3 pbc="T T T"
O       10.02882957      12.73669827      11.11021425
H       10.63742016      13.35877533      10.76755821
H        9.21632629      12.87908287      10.63532988
O       11.16802282       3.16569096       4.98071323
H       10.79597375       3.56020166       4.16435132
H       10.55940692       2.52833788       5.42328724
O       15.51810243       6.95198164       8.38060233
H       14.83068557       6.31539689       8.71706461
H       15.12944749       7.71938514       7.99055915
O        5.83568428       2.97489183      13.94522206
H        6.75450447       2.81774229      13.67416240
H        5.58791131       3.77580446      13.47843544
O       13.47226940      11.17907757       6.22363881
H       13.98855606      11.95578431       6.19066682
H       13.02765920      11.30076846       7.02401680
O        7.48295214       7.83576487       3.41037625
H        7.13116904       8.32834347       2.65360651
H        6.83808843       7.94785873       4.15143141
O        2.96803774       0.06652937       9.02584603
H        2.63381800       0.25104300       9.89183195
H        3.83557525      15.74628323       9.08164091
O       13.38105607      13.98784008       0.43015029
H       12.59665875      14.56380579       0.32188621
H       14.04359317      14.28285171      15.82714415
O        1.30408349      14.39866168       7.64312813
H        1.89137143      15.14993206       7.86101920
H        1.00595205      14.20731126       8.54321854
O       14.54846452       7.54732678       4.23464538
H       13.72452939       7.99429552       4.15514538
H       14.40064087       6.60198707       4.50404403
O        0.64453291      13.60880468      10.50403481
H       10.48978891      13.29732745      12.82988892
H        0.75884979      14.54546447      10.57335229
O       14.06078283      15.75514540       7.29215133
H       13.40579558      15.80432441       6.58373990
H       13.87067455      14.88625493       7.71910883
O        2.25043389      11.30219295      13.94340899
H        2.68565277      10.77070981      13.22896888
H        1.92217278      10.69601478      14.62689190
O        5.90461263       3.07188634       0.82860938
H        6.37664457       3.79566496       1.28422069
H        5.93844949       3.17976308      15.85810719
O        4.15618868      13.76109964      14.11709584
H        3.51263647      13.05639459      14.09858439
H        5.01036618      13.43056245      14.47891594
O       13.47191321      11.76749160      12.68612579
H       14.22921794      12.33836131      12.66975441
H       12.73921504      12.41307271      12.77058211
O        2.25545878      12.03824451       1.45784573
H        1.59623356      12.70375153       1.78503770
H        1.83213115      11.36427431       0.89360303
O        5.61120214      15.51740982       7.18619105
H        5.31950369      14.65711451       6.92553061
H        6.43993597      15.41965405       7.68650479
O        3.79823111       5.84798444      10.53756226
H        4.25684431       6.10639050       9.73533741
H        3.41126182       4.99241670      10.43707611
O        9.85176620       2.81597964      11.08563188
H        9.87477761       3.52034485      10.40441564
H       10.74989664       2.56813081      11.34555041
O       12.74376490       7.62470384      14.90113325
H       12.21670603       8.11537519      14.26994411
H       12.73869042       8.26599851      15.63818792
O       11.49913308       9.37785468      13.00274660
H       10.53239979       9.48918260      12.85636598
H       11.90766474      10.25899317      12.98270592
O       10.91642176      15.18274856       0.42150373
H       10.28282672      14.51402222       0.27320123
H       10.42226601      15.96642781       0.07265593
O       14.61331082      15.23942083       3.04903226
H       14.23180499      14.68080910       2.36651165
H       14.90759745       0.10000964       2.76072301
O        4.03725918      10.56245722      12.05004661
H        3.62671339       9.73604895      11.72238429
H        3.64453144      11.22632378      11.47005503
O        8.71911159      10.54108777       4.28723382
H        8.22525350       9.77030643       3.93733971
H        9.46216701      10.28382445       4.78618454
O        0.26366187      12.85832164      13.12331039
H       15.97260845      13.60769935      13.67942145
H        0.91630900      12.28255910      13.55169047
O       11.69316559      14.77182250      10.34451344
H       11.56667370      15.50175368       9.72001569
H        6.29123624      12.61780859       9.63704149
O        7.86787450       0.07211516       3.40085242
H        8.80308836      15.91678104       3.62143293
H        7.47556197       0.74875428       3.99996776
O        1.48111510       0.69848772       0.66561494
H        1.97425606       1.48890436       0.90403113
H        2.13657036       0.19268471       0.12752977
O        6.96692269       0.24239542      13.75508927
H        6.22179667       0.61275147      14.27171780
H        6.80207502      15.26832553      13.88754555
O        8.48158828       5.51064281      14.87309886
H        7.85430552       5.37734624      15.58482767
H        8.46356775       4.60850090      14.46033374
O        9.00338864       7.82586894       9.99470901
H        8.55593238       7.02113660      10.42320114
H        8.74185461       8.54796005      10.59364009
O       12.83925191      10.87959739       9.92137491
H       12.45846162      10.05008362       9.71814256
H       13.19922611      10.87953712      10.78379292
O        6.86816213       1.47861727       5.67378805
H        6.58262925       0.66406731       6.12152778
H        6.72625425       2.23331827       6.21972376
O        0.99211140       0.85934315      11.05959598
H        0.65914800       0.75815371      11.98324833
H        2.05502377       8.80665672      10.84880523
O        4.85109434       7.08313418       8.34708893
H        5.80142182       7.24169298       8.09854355
H        4.39644954       7.09813434       7.49753727
O       15.12850622      13.50587313       5.52492765
H       15.75314287      14.14184207       5.91180767
H       14.90348137      13.79367466       4.64765774
O        0.67118788       9.16016619      10.04976672
H       15.97531089       9.39860732      10.73024508
H        0.26834906       8.38235041       9.57570450
O       10.51462804      15.08503428       3.26337619
H       11.21033219      15.57865100       3.70983458
H       10.63477657      15.29566662       2.28487752
O       12.88121663       3.16439236       8.59527523
H       12.96613399       3.29961870       7.65501074
H        9.12041706       2.20439968      13.96867320
O        8.11056357       1.70008478       1.32167810
H        8.01288457       0.88719742       1.82648367
H        7.20614478       2.08792178       1.16356404
O       12.41748339       2.76519592      12.30971854
H       12.27934691       2.86698305      13.27231400
H       12.91748424       3.50303842      11.93547745
O        8.09248750       4.93709329       6.54716649
H        7.25752505       4.52443969       6.61663678
H        8.38170070       5.00079922       5.60231200
O       15.05245476      15.21336195      14.37267716
H       14.21899574      15.57404062      13.89522206
H       15.63840429      15.87725804      14.72321643
O       10.98509481       1.15608540       8.76755719
H       11.53870306       1.96309320       8.68169435
H       10.38870350       1.46918762       9.44419405
O        9.59592193      12.98530563      15.92686978
H       10.22511463      12.47217947      15.33316038
H        9.79156929      12.54479125       0.82191586
O        2.85608189       6.03029623       3.08171545
H        3.07095499       5.20565500       2.69171196
H        2.06972243       6.42297454       2.65771534
O       10.47818051       5.08075271       2.46036302
H       10.78924923       5.36012250       1.56087165
H       10.45882038       5.86979577       2.97976184
O       11.09033390       5.55773160      15.80377308
H       11.63329152       6.31746222      15.48854623
H       10.19376993       5.63547735      15.32891164
O        1.05604903       4.35822730      12.68577054
H        0.13480948       4.47781102      12.44202267
H        1.53431604       4.27225394      11.89554900
O        0.77063671       3.77603522       0.57109879
H        0.75034573       4.59119518       0.04366140
H        1.61166077       3.72487247       1.04332784
O        7.82703786      15.48008327       8.63889647
H        7.73111167      14.82272548       9.31835603
H        7.97375882       0.31020321       9.10626731
O        5.52019403       9.22186422       1.66757990
H        5.51479722      10.17191280       1.36031474
H        4.79390906       9.21187900       2.26582070
O       15.10450476       9.03885049       6.56368978
H       14.64058582       9.85626051       6.65569316
H       14.78423061       8.66095559       5.73705535
O       13.81388613       8.45326975      11.21437741
H       13.36200166       7.97733497      10.50035384
H       13.11598198       8.71161802      11.80581331
O        1.67777475       2.90808202       8.07516416
H        2.51088637       2.42765525       7.81667776
H        1.60603550       3.62940715       7.48016580
O        4.70771762      13.35587387       5.85891162
H        3.74804818      13.32635154       5.73871293
H        5.19755279      12.63758787       5.42178785
O        9.41518804       1.04782074      15.39471007
H        8.83005464       0.69034500      14.68373563
H        8.81678615       1.48086857       0.34824393
O       15.02817516       2.36562146       2.77398024
H       14.21439552       2.62791100       2.37474535
H       15.63057305       2.78338565       2.09608202
O        3.62577787      15.57282053       2.29336516
H        4.36552070      15.03741507       2.61221088
H        2.90525931      14.93312220       2.26164473
O       11.51006189       8.49203977       1.55518077
H       10.95274533       8.37215382       2.33773049
H       12.20917887       9.05167057       1.88178912
O       10.55413327       6.23503205      12.42639757
H       10.36693511       7.12368668      12.10332678
H        9.85905673       5.70734553      12.01983367
O        5.03422383      12.18160674       8.34597867
H        4.94333778      12.53402953       7.43698579
H        4.18585461      12.40471565       8.80282005
O        0.19053459       1.00992062       5.37540917
H       15.37503965       1.44186105       5.06137160
H       15.89633513       0.43178570       6.10615636
O       15.61918289       8.71441865      13.32076947
H       14.97251051       8.21829057      12.80222905
H        0.46114201       8.23742518      13.20025980
O        3.32603598      10.37984632       3.35155377
H        2.60839770       9.86426347       3.77172847
H        2.82280965      10.93336137       2.64381749
O        2.61481668       1.37213086       4.34058793
H        2.99660749       0.68703591       3.76586958
H        1.66051589       1.26215056       4.59559522
O        5.06279356       8.49616743      14.94736877
H        4.94794728       8.73710426      15.82074730
H        4.18294846       8.29698506      14.59411965
O       15.22493677       1.65729400       8.88147813
H       15.96381769       2.06068385       8.42531301
H       15.04845880       0.84567249       8.42553346
O       12.66619827       0.41005705       4.46171532
H       13.28525770       0.03119377       3.84119170
H       12.46877665       1.32287334       4.24567834
O        7.88901859       7.91610077      13.60271188
H        8.28813262       7.16487280      14.06856699
H        7.10288307       8.17617650      14.16144008
O       10.03461255      14.31788136       6.87397488
H       10.24717979      14.60033881       5.95963783
H        9.38103361      14.91916963       7.23544080
O       14.57576237      10.95596247      15.29290688
H       14.20062268      10.55013672      14.48007806
H       13.80604595      11.35320899      15.67012724
O       11.33620886      13.31715270      13.37222013
H        0.68499766      13.25443411      11.40478274
H       11.51690113      14.09911326      13.90063750
O        1.98488740      12.74874264       5.53052778
H        1.78773451      11.83015032       5.34295830
H        1.67137632      13.03808197       6.37973323
O       13.43262559       5.71837588       9.45397601
H       12.73959535       6.17264877       9.02923051
H       13.30239361       4.71476139       9.27553435
O        7.71705412       7.68121431       7.77411717
H        7.99673076       6.84573633       7.40168062
H        8.29483809       7.82544224       8.51273319
O        4.87157453       5.68706168      13.00737211
H        4.66519289       5.88103258      12.09075224
H        4.87558743       6.50432917      13.48072422
O       15.61472747       5.90981835      15.35267614
H       14.67946211       6.09567128      15.24176780
H        0.08856876       6.58859490      14.88723365
O       10.54964591      11.71001601       7.76410889
H       10.71289568      11.95792822       8.67251539
H       10.33923617      12.53068709       7.27537226
O        9.80353412       1.18574279       6.14258586
H        8.89493743       1.39263806       6.06513878
H       10.18089045       1.04549218       7.04677987
O        6.32614164       3.92003289       9.97777015
H        5.56505406       4.14519179      10.47500411
H        6.51962833       2.99115746      10.19674330
O        1.42443988       5.43606300       6.80094274
H        0.92131507       6.02557538       7.40874996
H        2.00807731       6.03584996       6.29462013
O        5.97832530      13.90129403       2.38313517
H        5.90228027      13.12618434       2.96629530
H        6.63486621      14.47427893       2.83159828
O        4.53522089       0.20596619      15.57233182
H        4.24043054      15.90086385       0.43883490
H        4.36241916      15.50495857      14.95199395
O        7.28037714       1.52761765      11.01073435
H        8.21333113       1.68363487      11.19387340
H        6.91698252       1.44216145      11.87823314
O        1.96318519       6.99816712      13.80499883
H        1.84426528       6.03748298      13.65342836
H        2.32052265       7.47781245      13.04477018
O       13.71528032       5.07039275      12.58325129
H       13.38595240       5.34708242      13.44918737
H       13.44145238       5.82657723      12.03623874
O        3.31803016       3.04933867       1.99072224
H        3.16158279       2.42919932       2.74805710
H        4.25670898       2.99375348       1.63003045
O        6.29829499       8.86165481       5.55231326
H        5.48769976       9.13969610       5.97618341
H        6.89582995       8.55676677       6.24462859
O        6.88029954      13.08083025      10.32180591
H        6.31121181      13.58975729      10.91895632
H       12.56479324      14.36529003      10.16452886
O       13.08482745       9.94417129       3.64709573
H       13.49580915      10.60773511       3.06112916
H       13.12268749      10.23648513       4.56208378
O        1.10304899       1.75067817      13.82865260
H        0.91425175       2.57724876      13.38662086
H        1.04674365       2.14475052      14.70530092
O        4.19112701       9.66851884       7.37778715
H        4.58014076      10.46038124       7.70086435
H        4.15766311       9.10845036       8.17283150
O       13.23879279       4.50081022       6.28196658
H       12.42788423       4.18966638       5.85762767
H       14.01471703       4.36308327       5.71154026
O       11.77496822       8.43540902       9.26190668
H       11.53115867       8.02805179       8.40374333
H       11.08079194       8.06374038       9.84477215
O        4.53064963      14.78915334      11.31851773
H        4.60514459      14.47621660      12.23924642
H        4.38067419      15.69359170      11.49913847
O       12.87157959      11.72476516       1.77430975
H       11.98903326      11.78851363       2.32700658
H       13.02697532      12.60049511       1.41207070
O        2.72585687       8.39264955      11.46681243
H        3.05536653       7.57269384      11.08208488
H        0.25499269       1.10719632      10.44646197
O        9.75681486       4.46199783       8.70185748
H        9.01944613       4.49104263       8.07567159
H       10.49766117       4.54522595       8.11790945
O       14.16005870      13.35540191       9.02859838
H       13.79959534      12.44581479       9.04736954
H       14.83815461      13.33501563       9.73081100
O        1.81819205      10.06794120       5.66549132
H        0.90993402       9.82260302       5.87459701
H        2.34985034      10.06850016       6.52136914
O       11.81757880       2.93972976      14.89173549
H       11.64474660       3.82855610      15.27820923
H       10.98037625       2.46197961      14.88864529
O        8.70532342       2.95421329      13.54414158
H        9.14238642       3.05114232      12.69177306
H       13.66111422       2.57588543       8.81897333
O        5.78312330       3.70364222       6.90569109
H        5.05227315       3.10313644       6.73623180
H        5.87757451       3.79608627       7.85440913
O        9.94128446       9.30028717       6.51573624
H        9.06957700       9.09288516       6.92851221
H       10.35251506       9.97288242       7.06751724
O        7.32291184       5.24339576       1.84531212
H        8.25475710       4.98328645       2.07035505
H        7.16833933       6.10785521       2.28575762
O       12.87165246       0.08792000      12.80156079
H       12.93832491       1.02520176      12.53413546
H       12.53621871      15.53568426      12.03435560
O        3.22626325       7.17852813       5.56165860
H        3.24651928       6.73536087       4.70067068
H        3.12160304       8.12093378       5.40446795
O        4.93712310      11.83512091       0.60229557
H        4.06111664      11.96550739       1.06367949
H        5.56716438      12.47453622       0.91429097
O       10.06373270       7.48054106       4.10039583
H       10.22753559       8.14267188       4.73972862
H        9.21974390       7.80126392       3.70882764
O        3.85336588       1.93152996       6.64226208
H        4.11148331       1.08212984       7.02722457
H        3.22845722       1.89444765       5.87370031
O        0.38205078       7.50430274       1.97703452
H       15.85115082       7.85337044       2.69187186
H       15.80299948       6.96435778       1.47622611
O        5.82978322      11.67202315       4.06262119
H        5.08977282      11.07541321       3.90604306
H        6.57603012      11.07099795       4.28359930
O        1.35806883      14.00262712       2.88741440
H        1.52798938      13.71833563       3.74873032
H        0.64571388      14.65261408       2.83435918
O       11.96051898       6.72162794       6.82593096
H       12.59418526       6.03348618       6.59485073
H       11.17824552       6.56429034       6.28339453
O        1.22267755       9.89035712       0.08807325
H        1.43812673       8.99727880       0.32046442
H        0.34195399       9.99005403      15.75164491
O        2.62793448       3.63964676      10.56256586
H        2.26681584       3.43491967       9.69362755
H        2.91369501       2.90136493      11.11294339
O        7.90701292       5.83094478      11.28224250
H        7.49188578       6.25506000      11.97789402
H        7.26632268       5.17594825      10.87348146
O        3.64479477       1.05693023      12.60821917
H        2.78584382       0.96178142      13.02971990
H        4.25245936       1.63038803      13.12140570
O        8.68792408       9.89151254      11.83270513
H        7.94008035      10.02137029      12.47019598
H        8.78718994      10.74240935      11.42660304
O        3.18901980      12.55841674      10.21566094
H        3.56699105      13.45297851      10.53094870
H        2.23174010      12.69925674      10.24135874
O        7.51478370      13.41439517      14.01168580
H        8.14331780      13.41400631      14.73467883
H        7.28856659      12.50640823      13.75747439
O       12.33682422       2.75516597       1.94970182
H       12.06539335       2.38175932       1.10785191
H       11.86072515       3.57930455       2.17996514
O       15.40779377       4.82497885       4.73380964
H        0.21960733       4.78933546       5.23096108
H       15.52274285       4.29404486       3.99307935
O       10.27486963      12.43274977       2.63742759
H       10.41773612      13.17137926       3.24526027
H        9.67528188      11.82673636       3.10637866
O        6.54367202      10.98245744      13.57073549
H        6.28217830      10.59087696      14.40460180
H        5.77103276      10.92788463      12.99644068
