384
Lattice="15.945573235401685 0.0 0.0 0.0 15.945573235401685 0.0 0.0 0.0 15.945573235401685" Properties=species:S:1:pos:R:3 pbc="T T T"
O       12.90529780      14.19591238      11.84666707
H       13.83385705      14.03858605      12.00401272
H       12.81461478      15.09929082      11.54095401
O        9.16259828       2.54305715       4.57511501
H        8.42799197       1.87032363       4.41244831
H        8.80286266       3.30671175       4.09981545
O       14.49730867       8.72041202      10.20540778
H       14.13827279       7.83041995      10.28216716
H       14.89315644       8.72489275       9.26680995
O       15.91289849       4.88584649      13.90855798
H       15.64428749       4.33490395      13.10329689
H        0.08298748       5.82189496      13.63566681
O       15.13881873      10.98673672       6.37872545
H       15.42852074      10.41117083       7.07982841
H       14.42205381      10.55344627       5.84823048
O        7.15748988       7.99449345       4.63820462
H        6.68613421       8.63537966       5.15584834
H        7.15297430       7.24046660       5.23788472
O        0.31358133      15.63708513      11.20187782
H        0.33100718      15.10302579      11.99132370
H       15.48281593       0.29227162      11.28337928
O       11.60176757       0.00320165       0.60999702
H       11.44312464      15.55649813       1.43526214
H       12.59317483      15.85785432       0.47463672
O        1.14477596      14.75899646       7.22285155
H        1.18808509      14.90584422       6.27321426
H        0.27157042      14.42877555       7.48668716
O       13.50969180       7.71403635       6.00381984
H       12.71171741       8.24930926       6.00877048
H       13.14781062       6.83356117       5.83621843
O       14.07701802      13.05090585      15.04727578
H       11.63155248      14.30245090      13.75591797
H       13.81392464      13.93307124      15.23470371
O        1.52308669      15.26034796       4.62806586
H        2.15826886      15.71053214       4.03534185
H        1.32282834      14.41333385       4.21063384
O       13.95818524       9.10804602      13.50808375
H       14.76968851       8.73694962      13.12638956
H       13.96277593       9.13884541      14.49242098
O        3.58910724       4.16978672       2.04989896
H        3.53354337       5.10645445       2.18392497
H        2.72074052       3.85753506       1.93795985
O        6.06719298      14.09777050      15.44787450
H        5.60278253      13.28617435      15.67965794
H        6.88689404      13.78270168      15.11156100
O       12.19115313      10.33353532       9.66964307
H       13.04582021       9.87540901       9.93910902
H       12.16845790      10.33447837       8.67477435
O        1.84873237       9.00159489      15.09522698
H        1.39960171       9.83155705      15.36818262
H        2.45585781       8.89465727      15.78878104
O        6.23526487      12.80001440       4.35405074
H        7.15789076      12.54806506       4.59812610
H        5.96953548      13.05854116       5.26598347
O        7.83138950       6.47100007       9.17000606
H        7.62732252       7.38612893       9.34313135
H        7.18160897       6.18439452       8.46143510
O        7.81830816       4.41321907      11.14060436
H        7.54444423       5.10501243      10.54832215
H        7.65686774       4.76190886      12.04870180
O       11.75259659       7.67446198      12.81727408
H       11.35688024       8.05980801      12.01245931
H       12.60218383       8.05367318      12.85262821
O       10.36342858      11.38231413      14.89618924
H       11.28669442      11.45950937      14.78389203
H       10.08278007      11.92346653      14.17492984
O        9.12279443       4.97712233       1.97621582
H        9.06467493       4.05556419       1.72367031
H        8.17985900       5.25537192       1.97471901
O        0.41140043      11.63141350       0.09229466
H        1.17947799      12.15746277       0.26415436
H       15.65165094      12.24153292      15.69818691
O        1.86244854       6.10753504      11.30783648
H        2.83805598       6.14818669      11.42260408
H        1.67826064       5.27255499      10.87651966
O        9.84056540       8.65799439       3.92785889
H        8.94255865       8.46514921       4.15300146
H       10.34444031       9.09509332       4.60420473
O       12.93580848      11.63794239      12.97579695
H       13.31458688      10.74833611      13.02276666
H       12.45511695      11.64342227      12.13936490
O       12.41590824       0.40744713       5.58227223
H       11.96385237       1.10284880       5.02132837
H        8.29108641      13.83619088       9.78434837
O        8.32683318       2.49028578       1.17927022
H        9.00754310       2.19309532       0.60484071
H        8.07155808       1.78163452       1.69847847
O        5.04637485       0.90636955      14.44006272
H        5.24546790       1.61596549      15.05335488
H        5.21207725       0.03867016      14.74436623
O        7.48859347       2.19016363       9.68247805
H        7.55394775       3.01621114      10.17124525
H        7.88997007       2.40047733       8.80112701
O        6.58274186       8.80568945       0.66197597
H        7.40210049       9.18789039       1.04384369
H        6.56568575       7.92968755       1.02838169
O       10.38730713       8.31396215      10.32812618
H       10.94017168       9.01613077      10.03855572
H       10.30084386       7.69402998       9.56185191
O       12.25147981      13.74507147       9.06635202
H       12.08411363      14.64072921       8.73846184
H       12.16639210      13.76703394      10.00343084
O        8.74999951      15.26734106       4.28914311
H        8.71970388      15.29381080       5.28322018
H        7.92871874      15.54524782       3.93658152
O       13.83542068       1.09682769      11.46924875
H       13.33453697       1.48125449      10.65183265
H       14.73641748       4.72255136      15.12571789
O        4.77162447       6.24239483       7.93999144
H        4.21057606       6.91910697       7.45805666
H        4.13097896       5.66336333       8.33957019
O       13.23841274       8.47349869       0.37482515
H       13.49512821       7.79300898       0.96934320
H       12.32079010       8.49405875       0.18038746
O        0.49295110      11.98367768       9.79944218
H       15.87019590      12.53715616       9.22950080
H        0.23957921      12.26843213      10.68266435
O       11.05657214      14.16744276       2.75594426
H       11.67960007      13.48642254       3.05101253
H       10.59976819      14.28539604       3.56369763
O       15.22665069       0.85822072       5.23079517
H       15.94309024       0.35365242       4.85045022
H        6.61582811       8.75400090      14.42462566
O        4.83653939       3.54646325      15.40036104
H        4.48890935       3.73083126       0.34349228
H        4.06634352       3.67899103      14.85038599
O        9.08459709       6.11849656      15.25277800
H        8.31976420       5.80597416      14.79860898
H        9.10500385       5.73298635       0.19507283
O        6.47234417       5.43277160       5.84950785
H        5.92579381       5.03354050       5.18275119
H        5.92070287       5.56408408       6.67196408
O       14.16765827       0.40626205      15.16788479
H       13.70644332       0.67524666      14.35110956
H       15.05158584       0.74928621      15.09814379
O       11.38921092       0.05850627       7.86422002
H       11.79932416       0.16044600       6.90621927
H       11.18222646       0.92597034       8.22839674
O        9.97018288       1.66106722      15.10031078
H        9.19848421       1.22423972      14.63786106
H       10.40210543       0.87965442      15.54231566
O        1.42041081       1.65287232       1.22356097
H        2.14751451       1.32339577       1.76699365
H        0.81618246       1.97573487       1.87180499
O       13.24942376       2.79918116       1.54158035
H       13.43725274       3.48411191       0.88874600
H       13.23600886       1.98714167       1.03587901
O        8.85080707      10.32952708       1.75569334
H        9.38994208       9.97217143       2.49450628
H        9.59779922      10.51792513       1.21770053
O       15.38725721       3.44333729      11.41862847
H       15.05116437       2.53376111      11.30269843
H        0.00732485       3.65689652      10.61210396
O       12.43618400       2.15765675      13.73842759
H       12.64649432       3.02872721      14.01368907
H       11.52349740       2.00961656      14.11813871
O        7.88423423       0.33193201      13.76498160
H        6.95532259       0.58552061      14.00130959
H        7.91438847      15.32844411      14.03885355
O        3.83218807      10.30796839       5.54395932
H        4.42752965      10.18869458       4.81153140
H        2.99552784      10.55857757       5.06718778
O       15.33702131       8.36020381       7.79102273
H       14.67877926       7.82667475       7.24089365
H        0.15421004       7.89656809       8.14572224
O       13.54701677       5.73218925      10.60498595
H       13.95123088       4.96714815      11.07627236
H       12.72113240       5.91968598      11.11178520
O        2.81214506       1.64317842       7.45220584
H        2.12228740       2.21244288       7.17385592
H        2.48301866       1.10761122       8.12859301
O        7.00109050      13.61131105       9.10838697
H        6.66402828      12.85934117       9.58938966
H        6.36028634      14.37023311       9.24785047
O        6.70264505       5.04179683      13.75775879
H        5.89219525       5.19521410      13.24787997
H        6.42838541       4.41618992      14.43809103
O        1.69877871      14.47743830      15.55334194
H        1.37651572      15.37593446      15.45824146
H        2.04996953      14.14568735      14.69647149
O        5.67533967      15.06869597       2.10549091
H        6.07115128      14.71226639       1.30124523
H        5.71001208      14.37944962       2.78887963
O       10.53710050       8.75730579      15.70376065
H       10.26933603       9.50697285      15.17465861
H       10.29003071       7.92673965      15.27919847
O       10.83585869       4.18757172      11.11468191
H        9.93397752       3.90109213      10.98429691
H       10.89588012       4.32465955      12.07987429
O        5.32550241      15.88279226       9.27410448
H        5.39326282       0.28676613      10.19159049
H        4.41278023      15.60407987       9.15934694
O        4.43249771       0.90567057       5.37241753
H        5.26531189       0.63808993       5.66763508
H        3.93653543       0.98571180       6.18434489
O        3.50306989       8.78937669       1.87972137
H        3.27988669       9.62509381       2.35124065
H        4.42589552       8.84476279       1.65675218
O        4.80391159      12.41779188       7.07592291
H        4.20703853      11.79516270       6.58856972
H        4.18228109      13.03904634       7.53779275
O        6.73463094       1.37285030       3.39227506
H        6.25881771       2.24088070       3.30506823
H        6.37274851       0.72859935       2.65186281
O        4.15981428       6.53472553       3.16320180
H        3.79245070       6.39440777       4.06538146
H        3.67584317       7.21798553       2.63425888
O        1.36186018       3.83974021       9.44953160
H        1.38871128       4.00203249       8.51191853
H        1.93141506       3.10053319       9.64895476
O       13.97481242      11.53960229       4.01429118
H       13.74947816      11.34599406       3.05703183
H       13.24331426      12.09078139       4.34484178
O        6.65085187      11.53628882      11.18163776
H        7.51620715      11.81461434      11.73022537
H        5.88066304      11.90259610      11.60667885
O        9.01686412      15.00951957       6.86409861
H        9.65783087      15.41846414       7.45176508
H        8.22361379      15.53234117       7.00425172
O        1.63781832       6.67545997       5.04952536
H        1.24446998       6.87633457       4.20825424
H        1.81499270       7.46662952       5.56751498
O       11.34755898      14.06812079      14.62562994
H       13.46181618      12.62395397      14.42296308
H       11.28733757      14.82621857      15.22136737
O        0.56476696      12.52720673       4.44645037
H       15.58292136      12.30870921       4.18637884
H        0.60198837      12.37568034       5.37573196
O       11.24209197       5.31740328       5.69640808
H       11.21328318       5.70355300       4.80965410
H       11.55156770       4.39901694       5.59876841
O        7.91230519       9.26170927       9.68910294
H        8.75903879       9.10981301      10.16125093
H        7.41847748       9.84652356      10.28041332
O        5.55684360       7.28559011      11.49007276
H        5.07820708       7.77594772      10.80964787
H        5.90355984       7.93713838      12.14037536
O       15.51211487       2.96781664       3.28733404
H       14.74622535       2.78951029       2.72379271
H       15.34841455       2.52326775       4.14314967
O       10.92871783      12.14461440       7.42615464
H       11.29729657      12.58582271       8.22149043
H        9.95242056      12.29977144       7.34946934
O       12.13791128      13.30784038       5.29109587
H       12.36349944      14.21571362       5.52596923
H       11.86338054      12.85644330       6.11651320
O        6.67309740       0.54169853       6.87664839
H        6.36769076       0.27367936       7.78582601
H        6.78914490       1.50052706       7.02105587
O        2.98582492       8.18920342       7.13997103
H        2.82108658       8.60322346       7.95364563
H        3.32565786       8.93368770       6.52207812
O        5.64653077      10.41155094       3.09758810
H        5.95656174      11.33573002       3.20162179
H        6.40102359      10.02453477       2.64787788
O        4.94582047       1.46524563      11.77298077
H        5.42067283       2.21630578      11.36697769
H        5.17874913       1.45644943      12.73192256
O        8.99058165       0.33735075      11.36343936
H        8.72004207       1.06871915      10.78326116
H        8.57687009       0.50580729      12.23798207
O        2.74760810       3.86846398      13.72787207
H        1.94082384       4.37851768      13.96348473
H        3.09381475       4.25121254      12.83299236
O        0.23035415       7.58749675      13.26652313
H        0.86141072       8.02309649      13.89635871
H        0.70549207       7.33715167      12.44373819
O        2.03961073       4.26403453       6.72776212
H        2.89028893       4.18804274       6.24390339
H        1.54470190       4.67632142       6.06268644
O        7.01162434       9.88981463       7.16353569
H        6.13727473      10.27897811       7.18561855
H        7.32176059       9.61852620       8.03625196
O        9.16367870      13.93986432      10.41754301
H        9.13822782      14.92855891      10.72932744
H       13.42879921       0.56538228       5.59859842
O       15.65718175       8.88825559       3.52380647
H       15.46362447       8.24431239       4.22206594
H       14.85041199       9.40867274       3.47842143
O        0.76440441       1.59460342      14.65738791
H        1.28092041       1.88350189      15.46357310
H        1.29537308       1.77707572      13.86891825
O        1.86306087       9.16667310      10.05825210
H        1.30923250       9.95018116      10.17333016
H        1.37639300       8.51993983      10.55814652
O       11.70224420       2.39768961       4.01477210
H       12.23553417       2.47460724       3.18558368
H       10.77822409       2.59347598       3.87270830
O       13.65027997       4.00083693       8.30665338
H       13.76888161       4.40135011       7.42840598
H       13.62809694       4.75959223       8.92186554
O        2.83548144      13.22804268      13.46545936
H        3.46876500      12.52121515      13.60755661
H        3.24845751      13.95917941      13.02371211
O       13.04623332      11.27352411       1.42073498
H       13.00117965      10.37878001       1.08885238
H       13.50240659      11.79265136       0.68777556
O       13.93685131       4.70896592      15.76366636
H       13.20791936       4.92368942      15.18049870
H       13.37261474       1.47546428      12.20339745
O       10.23897336       7.08796228       7.78292860
H       10.49956509       6.33232671       7.27982477
H        9.34871645       6.81843093       8.00923052
O       14.80186267      13.51913663       7.98884721
H       14.76370694      12.75783208       7.41491496
H       13.88417565      13.68413393       8.34082363
O        3.09652217      13.98404205       8.87643413
H        2.53965403      13.30491778       9.31314524
H        2.45803352      14.44354499       8.29975382
O       11.47181105       5.14965321      13.85232650
H       11.73024104       5.99418877      13.39156609
H       10.71051884       5.48438974      14.35233801
O        6.40102713       8.97605939      13.49828217
H        6.73801017       9.79977562      13.28623799
H       15.49259146       1.20227655       6.11428500
O        7.65768026       3.10292835       6.94023719
H        7.20840593       3.92224116       6.64784095
H        8.27728055       2.87010758       6.27636431
O       11.18897086       9.64837092       6.30277688
H       10.66524426       8.96571912       6.70695512
H       10.97238720      10.53912182       6.63952999
O        6.94211678       6.28531971       2.43529678
H        6.98922207       6.99900069       3.12668485
H        5.98738215       6.09100758       2.31616461
O       12.10228674       2.17752613       9.65460970
H       11.92802629       2.79298572      10.47933312
H       12.59832058       2.82373755       9.08491589
O       15.69818539       1.25488958       7.94612225
H       15.01855896       1.36446965       8.58934229
H        0.19051612       0.41456692       7.94137231
O        4.66851522      11.99231905       0.80374605
H        3.90455120      12.49449134       1.18918778
H        5.03320525      11.53503377       1.55904051
O       11.23810515       6.29723908       3.08317784
H       10.94984338       7.23472656       3.13862575
H       10.61502908       5.85372462       2.49565228
O        4.25864791       3.66910651       4.90999942
H        4.61967875       2.75342192       5.01147129
H        3.83836547       3.69342959       3.99285818
O        1.10450210       6.24854457       2.59083023
H        0.25897199       5.81616368       2.63001437
H        0.93805806       7.10295910       2.21104027
O        8.30661674      12.39141403       6.61841443
H        7.70986198      11.71218975       6.92135783
H        7.97335569      13.20898073       6.94058876
O        2.49820113      13.33134850       1.85614899
H        1.85018357      12.87788204       2.36413456
H        2.09571496      13.91926054       1.23926669
O       14.78228043       5.23129277       5.49740735
H       15.53169214       5.87309605       5.53794345
H       15.04075778       4.53719303       4.89625817
O        2.01085685      10.38729770       3.56437697
H        1.26861410       9.80712085       3.52131879
H        1.61290504      11.21820016       3.65652015
O        4.67776318       3.10345702       9.24734111
H        4.09377490       2.58467827       8.65872405
H        5.50216700       2.65686643       9.12470999
O        4.56440793       4.83510996      11.64692996
H        4.90612236       5.69895348      11.38011364
H        4.64489666       4.30036950      10.84982465
O        2.55043068       1.36892170      10.41950978
H        1.90240557       0.62783785      10.59924467
H        3.30441174       1.41386944      11.02078887
O        8.86805030      12.13864984      12.34588108
H        9.07371202      13.25103736      11.14816826
H        9.59448464      11.48828556      12.20429829
O        0.17204952      13.04040669      12.68158976
H        0.97864160      12.78373025      13.15510913
H       15.47400209      12.84653944      13.35691938
O        8.35272141      13.80630387      14.34945229
H        8.97752221      13.60831102      15.00263839
H        8.65618779      13.13834820      13.67677744
O       14.18919105       6.35463344       2.19897502
H       14.02021351       5.69320365       1.54848059
H       13.45041452       6.28877604       2.81807395
O        3.41835873       0.46458513       3.00273749
H        3.91706950       0.59233163       3.89364671
H        3.98445330      15.91201770       2.42649868
O        8.70577996      13.15170288       1.31832366
H        9.36090993      13.57447714       1.83699388
H        8.66897405      12.25602672       1.63749377
O        4.47672464      11.27238987      14.11336395
H        4.46341639      11.17412630      15.07499119
H        4.80538831      10.36472897      13.78533932
