384
Lattice="16.02177969169286 0.0 0.0 0.0 16.02177969169286 0.0 0.0 0.0 16.02177969169286" Properties=species:S:1:pos:R:3 pbc="T T T"
O        9.55729219      14.62465315      14.57560390
H        9.87064331      13.88843991      14.02571420
H       10.27650846      15.29057820      14.57921834
O       10.78421158       2.27522154       7.37462073
H       10.63849081       3.09652986       7.86972458
H        9.83880277       2.03121201       7.20528904
O       14.97071927       8.80248444       9.05215060
H       15.11952597       8.44363754       9.95950602
H       14.81682268       9.73400636       9.17382158
O       15.58082971       5.13424873      12.98618828
H        0.39217072       5.14429685      13.41718830
H       15.29774819       4.21032961      12.94856096
O       14.38732826      12.55333532       6.63840145
H       13.99472016      12.02448377       5.97335657
H       14.13829104      13.46542074       6.36112816
O        7.78092425      10.15003580       6.52604838
H        6.95073791      10.42491149       6.97862588
H        7.77065357       9.19338769       6.29058059
O       14.24947109      13.24264846      11.25678231
H       14.05558356      12.88572540      12.14438949
H       14.33769310      14.17626394      11.33927967
O       13.05464441      14.02045345       1.10631602
H       12.88336719      14.23575749       1.99763267
H       12.62206711      14.53664436       0.42703733
O        3.04982113       1.54036730       6.37562367
H        3.74226938       1.80512522       5.77774394
H        3.17634146       0.59312938       6.53277555
O       12.91637144       8.28863230       6.82207156
H       13.05959946       8.38825729       7.74290685
H       13.46904056       7.55515294       6.59167789
O       13.49349470      12.91467167      13.87630955
H        9.55230032      12.05568458      12.84032562
H       13.30035899      13.74097085      14.39376471
O        0.89568974       0.77283242       2.73361306
H        1.78666571       0.47191092       2.53080743
H        0.38584300      16.00657130       2.51016035
O       12.07685505       8.60176242       9.92401273
H       11.50403231       9.36170501       9.98273952
H       12.98476404       8.77786700      10.13201485
O        5.30216791       4.25855776       2.93976000
H        5.22580669       4.90192124       3.64507135
H        4.37177113       4.09874820       2.65426949
O        6.54222033       0.42255910       0.41967027
H        6.98946264      15.60903088       0.49119698
H        6.92789471       0.97492993       1.10462159
O       10.49490456      11.01259915       9.92962952
H       10.72339512      11.50774724      10.78548105
H       10.78472966      11.65977420       9.25086957
O        2.83712572       9.13211976       0.54494192
H        2.23148568       9.55425587       1.19522415
H        3.20094127       8.43986530       1.11033955
O        3.25547087      14.74875296       6.73916884
H        3.78398101      14.75812453       7.58143180
H        3.88766026      14.51206717       6.05214850
O        6.59969659       5.40717614       6.83561653
H        6.16567409       5.80056434       7.54824601
H        5.92794181       4.88302763       6.31621046
O        5.33448930       3.89095594       9.94797548
H        4.62245715       4.54268831       9.77243559
H        5.18555330       3.61420037      10.89153219
O        9.95469331       6.72086645      11.12610970
H        9.35970419       7.37622617      10.71690742
H       10.80044685       7.17942468      10.96960174
O        8.85301190       9.93231236      14.55366541
H        9.70646330      10.17824117      14.74746080
H        8.69451155      10.41106781      13.70293202
O        8.99893981       4.76524432       0.14820931
H        8.55266484       5.59902811       0.19831169
H        8.45326869       4.13545876      15.71765243
O       15.34321324       8.77521385      15.84668122
H       15.90639756       8.00688395      15.55132651
H       15.66238212       8.82235057       0.81077251
O        2.74437697       9.97836264      11.55306604
H        2.07541716      10.67923402      11.37256511
H        3.51484974      10.16171892      11.02199275
O       13.00106356       9.56793583       2.72400388
H       13.17705509       9.80117500       3.68077565
H       13.64055684       9.03709913       2.21467511
O       13.85215029      11.34373313       9.05457989
H       13.95852097      11.79813476       8.22398837
H       13.96347539      12.06772404       9.64094507
O       14.74262753       1.25210335       6.62102150
H       13.97428072       1.71701890       6.19048772
H        7.87600870      13.54083196      10.82900684
O       10.09723392       3.45198579       2.98708405
H        9.78696162       3.94294543       2.22505567
H       10.06079991       4.20144793       3.66146767
O        5.50749003      15.98525643      13.97144738
H        5.49353284       0.43677011      14.79711166
H        4.81381375      15.31018132      14.03762793
O        9.26727926       0.81254589      10.59448541
H        8.89570842       0.73753125      11.46882634
H        8.96296284       1.63762757      10.24782791
O        7.08746219       7.12547124       0.43118279
H        6.41160760       6.72350753       1.04890388
H        7.09676258       8.09411650       0.50662281
O        8.37603454       8.77414253       9.70192314
H        8.13370847       9.64170711       9.52267534
H        8.83397509       8.54615353       8.86396523
O       11.61089615      14.63272234      11.21807372
H       11.15617653      13.90095837      11.73885136
H       12.46663243      14.20632459      11.06992767
O       12.27941078       0.52642407       8.89813160
H       11.74880868       0.16692812       9.57938856
H       11.76006547       1.25653768       8.47742552
O       11.17303400       0.66068499      13.10175799
H       11.22812702       0.43058034      12.14823649
H       14.67918794       4.20939324      15.65112241
O        4.12547111       5.97950720       5.21039643
H        4.32456070       6.67355662       5.82307475
H        3.21829602       5.82963247       5.50961962
O       11.68520360       6.66766178      15.56312872
H       11.82866157       6.89900601       0.49620963
H       10.72435752       6.74728238      15.37066545
O        0.74665001      12.00342490      12.00211910
H       15.99402685      12.10289396      11.45835949
H        0.50511848      11.64211305      12.91020998
O       12.05382200      14.48519007       3.95770465
H       12.49680154      14.76383443       4.77404709
H       11.27809837      15.02583512       3.74853394
O        0.72101855       2.39890868       4.99271488
H        0.85744346       1.83335400       4.20743094
H        6.72015102       6.36736953      14.46914189
O        3.00594150       2.37958566      14.35556025
H        2.67351541       3.10829928      14.89398000
H        2.20769654       2.20155760      13.80142479
O        7.90089708       2.37551480      14.49246014
H        7.67642722       1.69199421      15.11675266
H        7.12409817       2.73470266      14.07724281
O        8.17596259       7.36120633       5.74590135
H        8.90949666       7.16193948       6.40186052
H        7.58301271       6.61341490       5.96786760
O       12.95398422      15.57038297      14.69919339
H       12.39426993       0.00680658      14.12567148
H       13.52204574       0.15944600      15.09142001
O       14.70254084      15.82043605      10.08850585
H       13.95183659       0.06220006       9.53841725
H       14.62112373       0.52576532      10.76273115
O        9.68829276      15.77092252       3.07249755
H        9.92272820       0.41087609       2.42803390
H        9.00848540      15.19709045       2.67092885
O        2.61639491       3.77528747       1.65149452
H        2.09985093       3.04888279       1.92544438
H        1.99424448       4.52772653       1.70214156
O       13.00124990       1.46291482       2.89228765
H       13.27669426       2.36604730       2.73341377
H       12.58187625       1.48393744       3.75642209
O       11.87549615      11.30746321       0.87299591
H       12.47208348      10.83979918       1.39778730
H       12.00664208      12.23861233       1.06569225
O        0.79467494       1.52469034      12.69908008
H        0.98361670       0.58525532      12.56314436
H        1.30959038       1.93102074      11.97790157
O       11.25846312       1.29094279       0.75225795
H       11.48321711       2.10733887       0.17147550
H       11.97875595       1.20687878       1.44188753
O        7.63932666      15.36638126      12.94534362
H        6.69611092      15.44262530      13.40494117
H        7.58808206      14.35247698      12.46248839
O        4.27121262      10.79657521       4.59917390
H        5.06898724      11.30090697       4.34136142
H        3.65277051      11.49591003       4.83956457
O        0.04057661       9.75584912       5.57709147
H       15.29537176      10.18289632       5.22889059
H        0.77441084      10.33366693       5.64996489
O       14.68493229       7.73644274      11.79466631
H       14.48606930       6.81398011      12.07812786
H       14.53629002       8.22461642      12.59499341
O        5.39704661       2.45396834       5.40873883
H        5.95094377       2.90968270       5.98259613
H        5.44783311       2.86773573       4.52414645
O        5.51677208      10.49675093      10.17491949
H        5.68623225       9.80074276      10.86674201
H        5.48845595      11.40149000      10.65455099
O        5.58285149       3.32223028      12.69474094
H        5.41781828       4.19306242      13.01160459
H        4.90155203       2.72009643      13.04424484
O        1.79054798      14.88153959      12.05246513
H        1.52883120      14.12016597      11.54852486
H        2.31969265      14.57046077      12.77108392
O        5.39804743      13.68646294       4.38533807
H        5.30161551      13.70719622       3.44046766
H        6.31294646      13.80952867       4.68972496
O        9.34045810       7.17516824      14.28423331
H        8.92590531       8.08817845      14.31937807
H        9.56239883       6.93835057      13.42317831
O       11.40185360       3.78947234      12.69841518
H       11.37834183       3.85309367      13.67788473
H       12.37006950       3.67404938      12.48745879
O        8.72863526      14.19866326       9.05946084
H        8.66753507      15.13110679       9.28028089
H        9.66404276      13.98687232       9.16203866
O        8.50267125       1.32921387       6.89431101
H        8.44483237       0.83163184       6.06223965
H        7.66926268       1.33007302       7.39375589
O        3.82297315       8.10962503       2.85880290
H        3.82317005       9.07167493       3.09903898
H        3.66160656       7.64213368       3.68335147
O        1.99584487      13.36734258       4.05386967
H        1.93806809      13.35536682       4.99229459
H        2.64908840      14.00901743       3.77305214
O        7.42591260       2.18145968       2.49519476
H        6.98675915       3.04539932       2.48211574
H        8.33720339       2.36952148       2.81565014
O        0.54777626       7.40007750       4.32168814
H        0.42439888       8.11652390       4.97045080
H        0.04360802       6.62103140       4.67256149
O        2.33367137       2.94285658      11.01294593
H        2.59269899       3.76772528      11.42916678
H        2.00710326       3.11315707      10.12824745
O       11.71284681      10.63839089      14.36230568
H       12.30125494       9.83542135      14.16439640
H       11.80901398      10.78037553      15.33846313
O        6.28965309       9.09594332      12.48801432
H        7.08467960       9.63942171      12.52592281
H        6.47731048       8.22320883      12.84480652
O        8.92132591      12.21045235       5.11666904
H        8.58202537      13.02943983       5.53626607
H        8.62008623      11.58821554       5.77662388
O       15.40021304       4.69517505       4.62771720
H       15.80529785       3.83334219       4.79018156
H       14.72367369       4.60915727       3.98967552
O       10.43799966      12.46861638      13.06589465
H       12.69348604      12.34431357      13.94514767
H       10.80915788      11.71817793      13.60820353
O       15.52528058      14.54578849       1.49092931
H        0.20428487      14.05417824       0.99621940
H       14.63931457      14.44440468       1.12709688
O       10.27488834       7.41581834       7.74724643
H       11.11924565       7.87825992       7.72383971
H       10.47095242       6.51148444       8.00693381
O        5.69694922       7.54279551       9.20318266
H        6.52516784       8.02170196       9.40829560
H        5.14010537       8.08356356       8.64449453
O        3.79735543       6.51821666      11.57471461
H        4.37095468       6.91988948      10.97197204
H        4.32798963       6.60361362      12.37591214
O       14.61491824       1.09776585       0.31645183
H       14.14216288       1.18876046       1.14285042
H       15.49436437       0.84625293       0.50343305
O       11.50778930      13.08808050       7.92192508
H       12.43262914      13.24847314       8.15277322
H       11.67536705      12.74305703       7.04230477
O       13.12986169      15.02453207       6.34838687
H       13.81495069      15.71868429       6.42513248
H       12.48071302      15.19127850       7.05541470
O        7.03182437      13.91956989       6.71056581
H        7.58690337      14.30407783       7.38918886
H        6.54865098      13.14200125       7.08915979
O        4.12662852       8.34676521       6.68881689
H        3.34836394       8.42622440       7.22432326
H        4.12162640       8.97892951       6.03159749
O        7.34745708      12.01533747       2.72491783
H        8.00402081      12.03008020       3.47265642
H        7.30019569      11.19016069       2.31742472
O        3.92879330       0.66310131      11.13927250
H        3.54587328       1.53978934      11.10483255
H        3.15292509       0.09492010      11.06713014
O        8.11749167       4.82589157      12.35532026
H        8.95525528       5.14419772      12.01789398
H        8.29667341      15.31537622      13.68856291
O        1.95214227       5.20500650      14.38213598
H        2.25273020       6.05930374      14.14885318
H        1.86465465       5.30041583      15.37164352
O        1.87549081       8.17852034      14.03148433
H        2.12389326       8.52118466      14.92874180
H        2.15994111       8.89428068      13.36952198
O        2.15812394       8.97383854       8.85669188
H        1.25789771       8.91234775       8.41146755
H        2.10763763       8.46617113       9.64599054
O        5.83369641      11.73806629       7.74604320
H        4.93379698      11.83340867       7.44718817
H        5.71899327      11.17465341       8.50892835
O        7.39716725      13.29751212      11.61512989
H        8.34320080       4.03832719      12.82055592
H       15.50827418       1.52643315       6.06648725
O       15.87230079      11.80091235       3.30746028
H        0.65393653      12.37551744       3.30925548
H       15.26150212      12.22523717       2.67119927
O       14.41864157       2.48379144      13.92254557
H       14.15224276       2.30862747      14.85995678
H       15.24682187       1.96226811      13.72720868
O        2.82022674      11.65844056       8.80542018
H        2.40286699      12.07475441       8.06412519
H        2.68222547      10.64774917       8.83127188
O       12.64879090       2.65565284       5.52780724
H       12.79342731       3.57806113       5.21276415
H       11.83062229       2.61521071       6.08144050
O       15.76604979       4.89113295       9.16752719
H       15.61651442       5.44492731       8.39140000
H        0.31787197       5.43112414       9.69844969
O        4.29235894      13.54472687      13.62258979
H        5.02767535      13.04160282      13.98329271
H        4.37319780      13.19670412      12.71878372
O       13.21815501       8.51247054      14.18666929
H       13.97453609       8.65469252      14.82106363
H       12.73377022       7.81001163      14.55559030
O       14.72608228       5.11328595      15.96020772
H       14.86901230       5.58752806      15.09272330
H       11.14882020       1.65242951      13.01959829
O       11.06794295       4.93097343       9.09024764
H       10.67239902       5.47183584       9.86750006
H       11.93328349       4.59123433       9.40293965
O        1.09692524      12.76483371       6.87986063
H        0.15302448      12.55696038       6.71928694
H        1.14041794      13.62345884       7.31635793
O        4.49683513      12.93596288      11.00540060
H        3.74886201      12.64230400      10.49693181
H        4.75821007      13.72965252      10.52884698
O       11.53085307       3.87334907      15.53176687
H       12.00789815       4.75609952      15.40773242
H       10.61553010       4.09284298      15.69981748
O        6.17020072       6.11707315      13.69614514
H        6.90013493       5.98419506      13.02383168
H        1.50850667       2.17675788       5.48248607
O        8.21580105       3.22101404       9.75825878
H        8.82670642       3.91195226       9.87865323
H        7.46155346       3.80902529       9.70413648
O       13.33628486      10.33984679       5.14559272
H       13.12989559       9.75653712       5.88227371
H       12.57660294      10.94887502       5.23415458
O        7.09946639       9.65625452       0.64905863
H        7.74915562      10.01399333      15.99372932
H        6.25582956      10.06620445       0.30482692
O       13.37950722       3.75691343       9.96571247
H       14.21151447       4.14682497       9.62837466
H       13.42043614       2.91325955       9.54914751
O        2.00353079       3.38652632       8.32737655
H        1.13219396       3.34324296       7.92120397
H        2.46549344       2.67093467       7.83162773
O        3.90555807      15.24321383       2.25457725
H        3.31173167      15.15194613       1.54985904
H        4.63211913      15.85670297       1.92101756
O       11.54788272       7.10511372       2.48050832
H       11.75975343       8.01487670       2.80790356
H       10.57417050       7.03466983       2.65039480
O        9.05279442       6.46690455       3.16645498
H        8.71178866       6.77758669       4.00358328
H        8.42720813       6.69933124       2.46619820
O        1.17395012       6.38124688       1.50953530
H        0.23130552       6.22716725       1.59404379
H        1.44608949       6.49763982       2.44495449
O        5.00387136      15.01835502       9.22052296
H        5.79231152      15.37245287       8.82048514
H        4.53415232      15.73709485       9.70965023
O        1.94685827      13.18794904      15.59132678
H        2.83746688      13.14264958      15.21694543
H        1.44888255      12.47084062      15.18738351
O       14.20934027       5.65133977       6.91702008
H       14.48936005       5.10902166       6.17636158
H       13.41304373       5.22435436       7.27240701
O        0.38824764       9.26225906       2.18091476
H        0.34710683       8.48969848       2.81116593
H        0.01302580      10.00409363       2.70717005
O        6.14069474       1.46295986       8.31114209
H        5.38482628       1.80742797       7.81706898
H        6.05431853       2.07410886       9.02498931
O        1.21034324       6.79042088      10.55551102
H        1.95683269       6.56753764      11.10132615
H        0.47010718       7.02208372      11.14911070
O        0.64975281      15.08047453       8.34819404
H        0.01354387      15.34446628       8.99042161
H        0.38640944      15.60558229       7.56409103
O        8.22668147      10.96511113      12.31455889
H        7.61874909      12.34463311      12.00063830
H        8.58378438      10.54185993      11.50889267
O        0.20244097      11.26440959      14.44652707
H        0.16269885      10.42220701      14.89273119
H       15.42693076      11.73293133      14.68453203
O        7.92050206      14.06755358       0.66165568
H        7.56061174      13.37697360       1.20465624
H        8.66267746      13.77334516       0.11603383
O       13.64745583       4.93767784       2.74730183
H       13.76823048       4.97957619       1.79317216
H       12.81205582       5.31955804       2.97013941
O        2.57586097      15.92847180      15.96752693
H        2.78492803       0.73360284      15.55691305
H        1.73287288      15.63661550      15.61636890
O       11.51580176      12.18049459       5.27104462
H       10.55332621      12.06740139       5.14478855
H       11.64934382      12.93730520       4.62541298
O        4.90009360      10.27052035      15.09590473
H        4.08171606       9.97725785      15.52261982
H        5.05427401       9.65428120      14.42444591
