384
Lattice="15.745849888241022 0.0 0.0 0.0 15.745849888241022 0.0 0.0 0.0 15.745849888241022" Properties=species:S:1:pos:R:3 pbc="T T T"
O       11.39081838      15.41069264      11.45240220
H       11.23853584      14.85192024      12.25057042
H       12.12886961       0.26106589      11.71632545
O        9.05815983       3.20317312       4.28426634
H        8.63067550       2.43939553       4.66319990
H        9.10846248       3.14235789       3.34108691
O       13.70281704       8.08344984       9.42267873
H       14.60709106       7.82904763       9.04490046
H       13.28296809       8.55115363       8.70440567
O        0.25646549       6.12937036      13.34634721
H        0.13834029       5.43470862      12.68201271
H       15.46214345       6.87496068      13.10603639
O       14.91652068      12.53102770       6.81775877
H       14.98500562      11.59060771       6.56350672
H       14.08996298      12.84285423       6.46448366
O        7.95146961       8.39990308       4.84228360
H        7.24998299       8.17801636       5.47609042
H        8.64882421       7.71844038       4.89829281
O       14.28987885      14.67962333       9.62129952
H       14.26319800      14.83589819      10.57153569
H       13.36414707      14.75222222       9.35417797
O       11.61686105      14.85926308       0.99743428
H       11.43198824      14.91084818       1.90924844
H       12.38778839      15.36528071       0.82344142
O        3.08089080      15.42837705       6.48781105
H        2.95710416      14.98334585       5.64719577
H        2.49896398      14.97727123       7.11645267
O       12.56463204       9.17194705       6.96246123
H       11.74979876       9.63521817       7.05889766
H       12.33748074       8.28188125       6.57967986
O       14.55734050      13.98886125      13.27965984
H       10.85452733      13.26961901      13.85800035
H       14.41340826      14.76180092      13.82116612
O        1.73960285      14.70379590       4.43904995
H        2.13141830      14.69342672       3.57562851
H        1.47608149      13.79399946       4.56290436
O       13.08704002       8.09997655      13.27356198
H       13.86969993       8.50432025      12.86188310
H       12.97034108       8.62662407      14.06454256
O        3.53429549       4.87768757       2.69630926
H        2.94348065       5.44280154       3.22779508
H        2.99165088       4.04688629       2.58686079
O        5.93600530      14.05069045      15.53568532
H        5.67611271      13.22500474       0.14886905
H        6.76359229      13.88636131      15.11426800
O       11.76760932      11.21367508      11.02650336
H       12.69351147      11.35958964      11.20446879
H       11.55956815      11.95339798      10.43456484
O        2.29763458       8.41026988      12.00179875
H        2.84170714       9.13479483      11.67080370
H        2.38489395       8.31810919      12.94159603
O        5.58241598      12.95440785       4.97074414
H        6.38061655      12.72289531       5.44114189
H        4.83518099      12.68986306       5.48870061
O        7.02551407       5.50143248       7.42935769
H        7.01331541       6.16450222       8.13224914
H        6.08347213       5.41271507       7.14033041
O        7.12028359       3.51737382      11.81786539
H        6.43374467       4.24753895      11.67013548
H        7.53365914       3.73274159      12.66951464
O       10.45006642       8.07168676      12.80328706
H       10.26580740       8.38163782      11.93370627
H       11.39375214       8.35121321      12.99324647
O        9.87102161      10.30697572       0.25224648
H       10.68578407      10.64731667       0.68898291
H        9.79666777      10.75893820      15.18141760
O        9.43480302       6.08294496       1.49903780
H        9.15327527       5.17286506       1.80388101
H        8.69816985       6.70755285       1.67322531
O        0.35018552      11.43961225      14.41138784
H       15.34341991      11.56085208      13.76126340
H        0.65996821      10.64185030      14.05490768
O        1.01760182       6.65629053       9.84136623
H        1.66954390       6.24522906      10.36420975
H        0.37186135       5.93818263       9.69558912
O       11.24463433       9.36657173       3.75552594
H       11.43900967       9.07129557       4.61714939
H       11.66287847      10.22554674       3.75044911
O       14.50195092      11.34303412      11.83840582
H       14.60834377      10.39355507      11.77221058
H       15.04229316      11.75331307      11.16968555
O       13.29657424       0.45457470       5.78873880
H       12.56783126       1.01046833       5.42417397
H        8.24463687      14.12369743      11.83839781
O        9.15365860       3.19986544       1.66819324
H        9.64064062       2.75766360       0.95842313
H        8.32582904       2.73038087       1.71800346
O        5.54999886       0.92951919      14.24538767
H        5.67313369       1.54578196      14.97471552
H        5.23064514       0.12334017      14.62915698
O        8.00259214       1.65181031       9.43087824
H        7.48554315       2.34004614       9.90241979
H        8.52413462       2.23526318       8.86826278
O        4.90158122       6.95146297       0.55261555
H        4.33848890       6.46828373       1.10000032
H        5.74158898       6.97935385       1.08293842
O       10.04474021       8.43819156       9.95806415
H       10.07020753       9.25336337       9.46956829
H       10.73664305       7.88398829       9.53365362
O       10.45827304      13.46367998       9.55167328
H        9.86640486      13.02041861      10.23967239
H       10.85287014      14.21213079      10.02449259
O        7.72680637       0.69485901       5.16871052
H        7.86466871       0.28473978       6.00932051
H        7.06000101       0.15190067       4.62158558
O       13.05359510       1.84074118      12.11840462
H       12.45132038       2.28148407      11.51794114
H       14.16744047       5.58350501      14.13288187
O        4.41657990       5.82230718       6.57716416
H        4.33313586       6.70707528       6.37276966
H        3.55016287       5.52600576       6.90303667
O       13.20010784       9.48269387       0.13779544
H       14.13841825       9.27657384       0.24035385
H       12.85530703       8.86292713       0.86640606
O        1.79334365      11.57951958       9.95237593
H        1.61401839      12.26501421       9.29526707
H        1.61706039      12.01770843      10.79424019
O       10.59430742      14.68366574       3.67706033
H       11.28876391      14.29057678       4.27028585
H       10.27925109      15.46613182       4.10636457
O        0.25384807       1.39063095       5.37109950
H        0.58099735       0.56475086       4.99927092
H        5.55614271       6.87890676      14.71234817
O        5.62129857       2.96172270       0.30366966
H        5.96650657       2.57569329       1.12719069
H        5.06238300       3.66671181       0.62990780
O       10.08208284       4.77091928      14.90320083
H        9.13186982       4.48283797      14.92336403
H        9.97922744       5.62862769      15.36716748
O        9.13601487       5.95192837       5.55987445
H        9.15850151       5.17081435       4.96285683
H        8.25117065       5.79527325       6.01455496
O       14.24603507       0.18410378      15.55316241
H       14.55495895       1.03886228      15.35237673
H       14.81925686      15.69625276       0.53541929
O       11.97710819      15.62982658       8.15461428
H       12.74260009       0.34893771       7.74165893
H       11.65713896       0.51021036       8.82256004
O       10.08502190       1.50742987      15.70328006
H        9.48300863       1.36926079      14.99582760
H       10.56798117       0.67696216       0.18576167
O        2.10039749       2.48265296       2.41416975
H        2.48366526       1.64274966       2.16471718
H        1.22753309       2.25186777       2.75937356
O       12.65062490       2.62650774       1.74467954
H       12.99084106       3.56320452       1.64959188
H       12.36166640       2.42583083       0.79952041
O        7.73552521      10.25319509       2.40646492
H        7.94639222       9.67689594       3.14230034
H        8.50946391      10.19699776       1.81987221
O       15.44348845       3.63747721      11.50258043
H       14.85999486       2.96644068      11.96104055
H        0.41179187       3.13190635      11.05916524
O       12.32352905       2.88308032      14.73236685
H       12.56914404       3.84524170      14.64362299
H       11.37272153       2.74751303      14.90306765
O        8.34887324       0.54910098      13.81056744
H        7.39827890       0.63885300      13.93958604
H        8.46797731      15.32798441      14.06888425
O        2.28678454       9.44555511       3.97650059
H        3.02198361       9.52775310       3.38614983
H        1.85071569      10.31791546       3.93052919
O       15.24909052       9.56390231       6.43226958
H       14.32215955       9.51717072       6.72777397
H        0.03979127       9.48583170       7.16546230
O       14.70307899       5.06187327       9.53388932
H       14.82691996       4.38024457      10.24549067
H       13.98729732       5.65260294       9.66859758
O        3.77564594       2.40786790       6.88253352
H        3.12262819       3.09753051       7.02653099
H        3.29548299       1.59152351       6.89556347
O        7.46611728      10.25014317       9.98747574
H        7.61812145      10.37835001      10.95589792
H        6.74482759      10.94772553       9.82090879
O        7.53454063       4.48255729      14.56393669
H        7.15278936       5.35391088      14.43149760
H        6.93773132       4.01282567      15.15660271
O        1.91785203      15.06799216      15.14415041
H        1.38815679      15.66212304      14.65399659
H        2.49255367      14.54014140      14.55635905
O        6.09595060      14.79029618       2.86889384
H        6.75428922      14.16728550       2.54211752
H        5.78612232      14.41682662       3.73218962
O        8.41178699       8.16662787      14.74782730
H        8.86898896       8.69276775      15.41066519
H        9.01687798       8.13073656      13.95952355
O        9.42577875       4.43394424      10.41470193
H        8.54301342       4.34667575      10.84879353
H       10.00949416       4.64892567      11.13244255
O        6.14233600      14.18882700      11.34335418
H        5.92591154      14.99853894      10.84039310
H        5.83184902      13.51316230      10.70993966
O        6.34269458       2.94513738       6.10184600
H        6.67813008       2.09454081       5.94340980
H        5.44779217       2.81404662       6.39255302
O        2.50425415       8.82442066      14.81262883
H        1.94539397       9.26973407      15.43005563
H        3.44275763       9.07558382      15.14848668
O        3.62925573      12.07807491       6.82410296
H        3.48037572      11.11383632       6.81014237
H        2.89421897      12.50396683       7.27082221
O        6.83980992       1.71334474       2.47621154
H        6.58676216       2.36955850       3.18314866
H        6.68280614       0.88747255       2.73852112
O        1.32057814       6.42401616       3.73844668
H        1.15817011       6.12865800       2.81527424
H        1.43430095       7.38146404       3.87575022
O        1.51538836       2.64248883       9.86364129
H        2.01988702       1.80263322       9.94423271
H        0.93059051       2.54425199       9.09972564
O       13.15311504      11.61880032       3.63967713
H       12.92081769      11.86485286       2.77165028
H       12.89612754      12.34902525       4.23636368
O        7.47664255      10.25220672      12.83660270
H        8.14737255      10.56523890      13.42899209
H        7.22944446       9.35948536      13.14657111
O        8.07140582      14.70572537       7.53993199
H        8.56526679      14.85289477       8.37497589
H        7.15196810      14.48902988       7.82185338
O        0.19774132       4.42086960       5.27644354
H        0.62109960       3.57968458       5.07604473
H        0.38140860       4.98552011       4.49975742
O       11.50530646      13.98113553      13.81358262
H       13.64430088      13.77287507      12.97195847
H       11.59467891      14.26449499      14.72982837
O        0.91220397      11.76990773       3.64321764
H        0.82885737      12.05429679       2.74149165
H        0.03542297      11.72579874       3.96726179
O       11.74494899       6.61112641       6.13646594
H       12.43320496       6.03539074       5.71304480
H       10.87372173       6.39542027       5.76896515
O        7.25055781       7.63459022       9.64474585
H        8.21401611       7.43880549       9.73542146
H        7.15845992       8.62357998       9.72247262
O        5.62344920       6.03298982      11.17472879
H        6.18008722       6.54034037      10.54210887
H        5.66160282       6.43597159      12.05296170
O       15.15710593       1.26805810       2.44459381
H       14.35578285       1.74324654       2.24758817
H       14.91575461       0.93541731       3.31809719
O       10.46685450      13.08855167       6.86504612
H       10.67135685      13.19482937       7.81971380
H        9.68571076      13.66302041       6.79321800
O       12.57257753      13.52705069       5.45622975
H       13.05157964      14.38023818       5.55118731
H       11.83477584      13.55916512       6.05893789
O        5.22315971      14.49805534       8.05501224
H        4.48739477      14.55687608       7.44835826
H        5.14496873      15.23113653       8.68022416
O        3.26291432       9.23393407       6.81143245
H        2.48080942       9.04748367       7.40055385
H        2.87890301       9.23539694       5.92026812
O        4.93699731      10.06280173       2.85860653
H        5.55296663      10.59822685       3.36821175
H        5.40433151       9.27789235       2.60532747
O        5.18665409       1.06883137      11.16355960
H        5.51350294       1.80682906      10.66611292
H        5.45857534       1.29991871      12.06748365
O        9.43402339       1.34624608      11.69759565
H        8.97054009       1.45230936      10.85587855
H        8.91001084       0.94269804      12.50660803
O        2.38688027       5.27519529      14.82609187
H        1.76962327       5.69506802      14.13314251
H        3.23041833       5.39547086      14.44979464
O       15.27805428       8.61695306      11.66595312
H        0.46068639       8.36188908      11.69242842
H       14.85867606       8.13483234      10.94264825
O        1.97314350       4.93087858       7.35222310
H        1.35995320       5.00249011       8.08731397
H        1.39159859       5.04220393       6.61162663
O        6.14841351       9.12314711       6.94200172
H        5.21071791       9.37602211       6.98145056
H        6.23196699       8.40851958       7.55674528
O        9.15371449      13.76668354      11.96715916
H       10.24837205       0.65925447      11.48636484
H       14.04585983       1.01357673       5.69148639
O       14.42248651       9.04309088       3.59994325
H       14.87378336       9.38298342       4.40692334
H       13.88282107       9.83283302       3.56571379
O        0.93465087       2.30548021      15.16153075
H        1.20192003       2.59359796       0.33157417
H        1.24776747       2.95962717      14.56531289
O        1.41256173       9.06371986       8.79226440
H        0.99472134       9.75812869       9.27091463
H        1.21313846       8.26419329       9.30119232
O       11.70886598       2.19361654       4.19059849
H       11.87029114       2.28954575       3.19465243
H       10.79053711       2.50567134       4.43132401
O       13.31289144       3.14837032       7.99130932
H       13.14222090       3.58513287       7.16231491
H       13.68730439       3.85226354       8.56827283
O        3.71154529      13.59279663      13.60253893
H        4.05713468      12.69003833      13.62695167
H        4.44748337      14.14144828      13.36447806
O       12.28814382      11.83904323       1.27657355
H       12.41412749      12.67449528       0.75217505
H       12.74079466      11.09974729       0.83968810
O       13.45691481       5.63689498      14.76529074
H       12.88486622       6.25319858      14.30900703
H       12.74629158       2.14408513      12.96562755
O       11.47187771       5.81166524       8.84211822
H       11.57872985       6.12754143       7.91002539
H       10.54008765       5.56989974       8.98811122
O        1.26611456      13.61831357       7.95486245
H        0.42790151      13.27173070       7.48777730
H        1.00015698      14.41528562       8.34318776
O        5.10586829      11.87459882       9.48119330
H        4.16272835      11.53145117       9.42331497
H        5.06294930      12.40247058       8.64184907
O       11.16251542       5.18960359      12.43727151
H       11.27323953       6.11610432      12.26743723
H       10.60898671       5.13864155      13.22438006
O        6.17537787       6.82875573      13.95793932
H        6.87275213       7.49142381      14.17669730
H        0.28523131       1.18728475       6.27949373
O        8.94233080       3.19034831       7.34615863
H        9.48878407       3.95364038       7.51228330
H        8.12344667       3.58861382       7.15965170
O        9.94096722       9.91330628       6.53926742
H        9.27410834       9.52526536       5.93818551
H        9.59293423      10.74178589       6.92053329
O        6.75727339       6.65346882       2.77299413
H        6.92715568       7.27921725       3.42937287
H        6.48562414       5.72094063       3.12635983
O       11.06100834       2.32287804       9.54917541
H       10.49776944       3.07050712       9.83833631
H       11.75507547       2.64652913       8.98252373
O       15.26192244       1.27833337       8.28933341
H       14.41283400       1.74862515       8.22333814
H       14.99980174       0.46244906       8.79634074
O        4.15091766      11.78351382       0.64147863
H        3.31602967      12.27625997       0.89099410
H        4.46242802      11.27503571       1.37996256
O       12.13391112       7.70053189       1.77877415
H       11.96846782       8.13967090       2.61768973
H       11.29256819       7.20095318       1.70014591
O        5.87133338       4.20878554       3.54743824
H        5.93729490       4.03974837       4.49253885
H        4.94410616       4.32135743       3.42434600
O        0.81778884       4.97238639       1.66261637
H        1.08437079       5.24163263       0.75397847
H       15.63064796       5.06839911       1.72313131
O        7.28610786      11.83844809       6.98096683
H        6.93787732      10.96776321       7.23669082
H        7.70120321      12.17472220       7.76747001
O        1.14159626      12.81823755       1.02870280
H        0.81424834      12.23555883       0.34814028
H        1.35782594      13.69353445       0.63520392
O       13.12450771       4.23490764       5.49655941
H       14.04044710       4.17171878       5.23047431
H       12.63306414       3.63422011       4.92212215
O        0.20387882       8.83729479       1.16318134
H        0.00549184       7.89074821       1.21840370
H       15.66241194       9.17201349       2.03001056
O        5.14320205       3.57673631       9.50658789
H        5.04483121       3.36211854       8.52257123
H        5.48989458       4.42790456       9.55969289
O        2.54630904       4.89272128      11.13351823
H        3.40795679       5.31204473      11.46414053
H        2.77968255       4.22069773      10.44617797
O        2.62492692       0.09898550      10.18258560
H        2.19692747      15.12813519      10.73367177
H        3.41586793       0.36753493      10.71536752
O        9.60335223      11.68001372      13.66548301
H        9.11702483      12.98088159      12.55287890
H       10.17341809      11.29341899      12.99219117
O        1.37896523      13.35767648      12.14052977
H        2.16307831      13.32216863      12.67291708
H        0.74111671      13.36604064      12.83238621
O        8.57838520      13.70104894      15.04504126
H        8.61865794      13.44366504       0.19053096
H        9.00700626      13.00787581      14.51608558
O       13.75141025       5.27978985       1.69966018
H       13.60149591       5.51381820       0.77511820
H       13.37522185       6.08304390       2.14150936
O        3.35625243       0.02480232       1.80555642
H        4.18068474      15.25065370       1.98851471
H        3.34439210      15.65897668       0.86018358
O        8.40678440      13.39608601       2.42780755
H        9.16163529      13.72235124       2.88648382
H        8.08124571      12.55569408       2.73020414
O        4.91818810      11.14831032      13.62150893
H        4.93444199      10.76027656      14.54883794
H        5.82363100      11.11352975      13.28383790
