392
Lattice="17.659 0.0 0.0 0.0 17.659 0.0 8.8295 8.8295 12.4868" Properties=species:S:1:pos:R:3 pbc="T T T"
O       20.28000000      14.65000000       7.49000000
O       20.48000000      16.01000000       5.22000000
O       20.74000000      13.48000000       5.31000000
O       18.50000000      14.53000000       5.62000000
H        8.39000000      18.67000000       8.71000000
H       20.35000000      12.61000000       5.59000000
H       18.00000000      14.24000000       6.39000000
P       20.03000000      14.77000000       5.98000000
O       19.82000000      18.33000000      11.62000000
H       19.06000000      18.91000000      11.46000000
Na      25.37000000      15.22000000      12.29000000
O        8.24000000      20.33000000       6.15000000
H        7.80000000      20.03000000       5.38000000
H        5.93000000      22.25000000       7.44000000
O        4.66000000       7.22000000       1.72000000
H        4.39000000       6.48000000       2.27000000
H        5.44000000       7.62000000       2.19000000
O        2.85000000      16.18000000       2.42000000
H        2.79000000      15.27000000       2.01000000
H        2.55000000      16.09000000       3.32000000
O       18.52000000      11.25000000       9.63000000
H       18.68000000      11.71000000      10.47000000
H       17.98000000      11.88000000       9.11000000
O        5.71000000      16.02000000       2.67000000
H        6.27000000      16.17000000       1.90000000
H        4.78000000      16.10000000       2.35000000
O       15.11000000      19.08000000      12.48000000
H        6.43000000       9.59000000       0.72000000
H        5.97000000      10.99000000       0.56000000
O       11.09000000      16.15000000       2.82000000
H        9.79000000      24.20000000      11.18000000
H       11.14000000      16.99000000       2.35000000
O       17.17000000      13.20000000       7.99000000
H       16.17000000      13.32000000       7.99000000
H       17.44000000      14.02000000       8.45000000
O        7.78000000      14.59000000       4.44000000
H        6.92000000      15.01000000       4.20000000
H        7.54000000      13.70000000       4.84000000
O       21.95000000      12.67000000       8.65000000
H       21.44000000      13.44000000       8.33000000
H       21.43000000      11.86000000       8.39000000
O        2.46000000      13.59000000       1.17000000
H        1.70000000      13.12000000       1.65000000
H        2.17000000      13.91000000       0.31000000
O       12.80000000      24.67000000       9.99000000
H       11.98000000      24.28000000      10.38000000
H       13.04000000      24.02000000       9.28000000
O       13.08000000      17.15000000       7.01000000
H       12.92000000      16.31000000       7.40000000
H       12.28000000      17.63000000       6.84000000
O        2.52000000       9.58000000       3.11000000
H       19.71000000       8.75000000       3.30000000
H        2.10000000       9.98000000       2.36000000
O       14.58000000       3.46000000       2.47000000
H       14.98000000       3.87000000       1.66000000
H       14.99000000       4.00000000       3.21000000
O        8.88000000      14.84000000       2.02000000
H        8.45000000      14.70000000       2.85000000
H        9.65000000      15.42000000       2.26000000
O       12.03000000       6.34000000       1.49000000
H       12.62000000       7.15000000       1.63000000
H       11.29000000       6.57000000       0.99000000
O       10.54000000      18.21000000       1.19000000
H       11.11000000       1.36000000       1.11000000
H        9.70000000       0.96000000       1.20000000
O       14.48000000      18.04000000       9.91000000
H       14.50000000      18.66000000       9.17000000
H       14.83000000      18.61000000      10.65000000
O       21.87000000       8.51000000       9.74000000
H       22.43000000       7.72000000       9.83000000
H       20.98000000       8.18000000      10.01000000
O       13.37000000      20.23000000       5.43000000
H       13.97000000      20.10000000       4.70000000
H       13.82000000      20.22000000       6.27000000
O       19.33000000      22.25000000       6.63000000
H       19.42000000      21.64000000       5.91000000
H       19.80000000      21.82000000       7.39000000
O       14.87000000      20.13000000       7.73000000
H       15.37000000      20.94000000       7.56000000
H       14.22000000      20.41000000       8.36000000
O        5.50000000      16.83000000       5.79000000
H        5.20000000      17.75000000       5.97000000
H        4.71000000      16.38000000       5.40000000
O       19.37000000      25.49000000      11.28000000
H       19.26000000      26.12000000      12.04000000
H       18.59000000       7.99000000      10.77000000
O       16.53000000      22.70000000       7.53000000
H       16.61000000       6.02000000       7.61000000
H       17.30000000      22.50000000       6.99000000
O       13.57000000      16.71000000       4.08000000
H       12.76000000      16.46000000       3.64000000
H       13.38000000      16.93000000       5.01000000
O       10.29000000      13.97000000       7.50000000
H        9.69000000      14.72000000       7.39000000
H       10.05000000      13.67000000       8.36000000
O       18.14000000       7.71000000       1.92000000
H       17.21000000       7.50000000       2.03000000
H       18.17000000       8.45000000       1.25000000
O        7.04000000      13.09000000       8.43000000
H        7.35000000      13.84000000       8.97000000
H        6.08000000      13.22000000       8.33000000
O       13.01000000      14.73000000       0.63000000
H       12.54000000      15.29000000       1.27000000
H       12.93000000      13.85000000       1.04000000
O        3.40000000       9.19000000       0.04000000
H       13.11000000      18.18000000      12.13000000
H        3.67000000       8.89000000       0.93000000
O        7.23000000       7.79000000       6.36000000
H        7.27000000       8.31000000       7.16000000
H        6.25000000       7.71000000       6.13000000
O        4.69000000       7.15000000       5.27000000
H        4.96000000       6.46000000       4.69000000
H       21.47000000       7.12000000       5.52000000
O       19.27000000       3.36000000       3.39000000
H       19.51000000       4.34000000       3.28000000
H        2.46000000       2.90000000       3.29000000
O       15.05000000      18.52000000       2.53000000
H       14.77000000      19.45000000       2.64000000
H       14.61000000      18.02000000       3.18000000
O       25.22000000      17.28000000      11.24000000
H       24.85000000      17.69000000      10.46000000
H       25.84000000      17.85000000      11.71000000
O        4.57000000       3.44000000       1.54000000
H        5.08000000       3.25000000       0.73000000
H        9.59000000      10.66000000       6.25000000
O        7.60000000       9.57000000       8.54000000
H        7.86000000      10.50000000       8.68000000
H        7.70000000       9.04000000       9.30000000
O       15.68000000      15.46000000      12.32000000
H       15.90000000      15.36000000      11.37000000
H        6.04000000       6.97000000       0.31000000
O        9.82000000      22.47000000       8.80000000
H        9.83000000      21.51000000       8.60000000
H        9.57000000      22.94000000       7.96000000
O       17.78000000      17.89000000       1.19000000
H        1.05000000      18.01000000       1.43000000
H       11.60000000       7.56000000       6.22000000
O        0.49000000      10.03000000       0.24000000
H       10.18000000      19.04000000      12.30000000
H       17.88000000      10.74000000       0.80000000
O       19.45000000      11.10000000       5.56000000
H       19.92000000      10.71000000       6.35000000
H       19.73000000      10.53000000       4.77000000
O        8.94000000      14.63000000      10.32000000
H        9.66000000      15.30000000      10.54000000
H        9.26000000      13.78000000      10.67000000
O       19.80000000       6.12000000       3.30000000
H       19.26000000       6.57000000       2.56000000
H       19.49000000       6.59000000       4.05000000
O       12.88000000       9.61000000       4.36000000
H       13.46000000       9.69000000       5.10000000
H       12.18000000      10.26000000       4.53000000
O       17.40000000       4.34000000       0.54000000
H       18.29000000       4.34000000       0.96000000
H       17.25000000       3.45000000       0.12000000
O       10.36000000      16.81000000       5.53000000
H        9.47000000      16.55000000       5.91000000
H       10.58000000      17.68000000       5.91000000
O       21.76000000      23.15000000      10.32000000
H       21.67000000      23.22000000      11.26000000
H       21.07000000      22.54000000       9.98000000
O       20.19000000      21.30000000       8.98000000
H       20.51000000      20.40000000       8.90000000
H       19.49000000      21.35000000       9.60000000
O        9.37000000       7.41000000       0.82000000
H        8.44000000       7.35000000       0.50000000
H        9.47000000       8.19000000       1.42000000
O       17.76000000      18.13000000       8.61000000
H       18.66000000      18.06000000       8.29000000
H       17.74000000      18.54000000       9.51000000
O       14.48000000      10.77000000      11.65000000
H       14.84000000      10.90000000      10.78000000
H       15.21000000      10.66000000      12.28000000
O       13.17000000      21.06000000      10.14000000
H       13.48000000      21.87000000       9.67000000
H       13.24000000      21.20000000      11.09000000
O        2.62000000       4.59000000       0.13000000
H        3.27000000       4.35000000       0.78000000
H       11.19000000      12.64000000      12.14000000
O       16.79000000      22.23000000      10.48000000
H       16.71000000      22.53000000       9.58000000
H       16.22000000      22.74000000      11.12000000
O       17.75000000      12.19000000       1.83000000
H       17.08000000      12.86000000       1.49000000
H       17.43000000      11.86000000       2.69000000
O       12.39000000       2.47000000       0.72000000
H       12.79000000       2.86000000       1.46000000
H       21.86000000      11.29000000      12.45000000
O       10.61000000      19.76000000       9.22000000
H       11.11000000      19.60000000       8.38000000
H       11.37000000      20.14000000       9.77000000
O       14.39000000      13.20000000       7.97000000
H       13.68000000      13.69000000       8.35000000
H       14.08000000      12.88000000       7.08000000
O       15.15000000      14.26000000       5.46000000
H       14.70000000      14.84000000       4.85000000
H       15.74000000      14.91000000       5.99000000
O        7.73000000       7.72000000      10.32000000
H        7.48000000      24.57000000       9.83000000
H       24.82000000      25.48000000      11.07000000
O        5.58000000       5.14000000       3.73000000
H        5.16000000       4.51000000       3.08000000
H        6.50000000       4.85000000       3.66000000
O       15.98000000      14.71000000       2.04000000
H       16.28000000      15.30000000       2.71000000
H       15.36000000      15.19000000       1.47000000
O       23.65000000       8.84000000      12.23000000
H       22.81000000      26.11000000      11.99000000
H       14.76000000      17.80000000       0.66000000
O       10.61000000      10.00000000       2.51000000
H       11.17000000      10.09000000       1.75000000
H       10.23000000      10.91000000       2.63000000
O       14.80000000      11.24000000       0.84000000
H       24.01000000      20.06000000      12.44000000
H       13.87000000      11.50000000       0.51000000
O       17.02000000      19.83000000       4.62000000
H       16.56000000      19.32000000       3.98000000
H       17.83000000      20.19000000       4.14000000
O       16.61000000      11.77000000       4.76000000
H       17.41000000      11.62000000       5.25000000
H       16.46000000      12.70000000       4.90000000
O        5.02000000      12.63000000       0.73000000
H        5.54000000      13.40000000       0.33000000
H        4.11000000      12.86000000       0.87000000
O        7.48000000       4.45000000       1.16000000
H        8.04000000       4.84000000       1.89000000
H        7.22000000       5.25000000       0.62000000
O        5.72000000      21.85000000       6.61000000
H        5.39000000       4.88000000       6.06000000
H       19.39000000      17.52000000      11.90000000
O       14.63000000       6.91000000       5.56000000
H       13.70000000       6.77000000       5.31000000
H       14.79000000       7.89000000       5.49000000
O       22.96000000      15.08000000      11.63000000
H       22.29000000      15.03000000      12.30000000
H       22.62000000      15.17000000      10.73000000
O       20.55000000      10.21000000       7.99000000
H       19.92000000      10.39000000       8.68000000
H       21.22000000       9.58000000       8.25000000
O       23.87000000      20.32000000      10.46000000
H       23.04000000      20.04000000      10.01000000
H       24.52000000      19.77000000      10.08000000
O       10.29000000      11.92000000      10.31000000
H       11.08000000      11.42000000       9.95000000
H        9.49000000      11.37000000      10.54000000
O        7.87000000       1.61000000       1.45000000
H        7.62000000      18.95000000       2.31000000
H        7.58000000       2.58000000       1.45000000
O       16.88000000       7.87000000       7.66000000
H       16.96000000       8.21000000       8.53000000
H       16.59000000       8.63000000       7.12000000
O       12.24000000      11.87000000       0.40000000
H       20.82000000      19.99000000      12.33000000
H       11.72000000      12.63000000       0.15000000
O       13.64000000      23.07000000       7.90000000
H       14.38000000       5.91000000       7.48000000
H       12.89000000       5.70000000       7.31000000
O       10.87000000      19.36000000       6.30000000
H       11.59000000      19.84000000       5.84000000
H       10.03000000      19.83000000       6.25000000
O       11.70000000       9.37000000       8.71000000
H       11.04000000       9.50000000       7.99000000
H       11.83000000       8.49000000       9.10000000
O       22.60000000      11.32000000      10.93000000
H       22.57000000      11.94000000      10.17000000
H       22.48000000      10.45000000      10.60000000
O       21.31000000      19.01000000       9.32000000
H       21.04000000      18.60000000      10.16000000
H       21.70000000      18.24000000       8.88000000
O       10.51000000      12.52000000       3.69000000
H       10.26000000      13.44000000       3.60000000
H       11.45000000      12.50000000       3.53000000
O       19.26000000      22.54000000      12.17000000
H        9.99000000      13.86000000       0.52000000
H       19.40000000      23.45000000      11.83000000
O       17.02000000       9.02000000      10.19000000
H        4.41000000       2.53000000       1.88000000
H       17.37000000       9.90000000       9.88000000
O       16.00000000       4.84000000       4.46000000
H       16.34000000       3.99000000       4.82000000
H       15.73000000       5.51000000       5.22000000
O       11.39000000       3.56000000       3.28000000
H       11.71000000       4.20000000       2.67000000
H       11.94000000       3.61000000       4.04000000
O       14.47000000      25.71000000      11.85000000
H       14.27000000       9.01000000      12.00000000
H       13.98000000       7.83000000      11.01000000
O        9.00000000       7.83000000       3.95000000
H        8.61000000       8.03000000       4.87000000
H        9.85000000       8.26000000       3.80000000
O        7.54000000      18.40000000       8.32000000
H        7.35000000      18.94000000       7.57000000
H       10.58000000      16.29000000       3.66000000
O       17.36000000      19.57000000      11.11000000
H       16.61000000      19.39000000      11.78000000
H       17.24000000      20.50000000      10.86000000
O        6.75000000      23.07000000       9.32000000
H       23.51000000      23.04000000       9.77000000
H        7.20000000      22.32000000       9.72000000
O       13.65000000       8.69000000       1.95000000
H       13.23000000       9.15000000       2.68000000
H       14.14000000       9.34000000       1.42000000
O        7.51000000      18.46000000       4.26000000
H        6.66000000      18.01000000       4.53000000
H        8.17000000      17.90000000       4.70000000
O        5.94000000      10.07000000       4.68000000
H        5.57000000      10.91000000       4.52000000
H        5.25000000       9.41000000       4.90000000
O        6.85000000      14.62000000       0.08000000
H        7.26000000      14.67000000       0.94000000
H       15.27000000      24.31000000      12.44000000
O        8.80000000       5.00000000       3.52000000
H        9.75000000       4.57000000       3.47000000
H        8.98000000       5.94000000       3.44000000
O       14.28000000      10.52000000       8.89000000
H       13.33000000      10.26000000       8.85000000
H       14.40000000      11.43000000       8.59000000
O       15.03000000       9.70000000       6.33000000
H       15.24000000      10.50000000       5.87000000
H       14.68000000       9.97000000       7.16000000
O       18.98000000      14.93000000      10.39000000
H       19.55000000      14.35000000       9.86000000
H       18.78000000      14.28000000      11.12000000
O       13.61000000      13.07000000       2.77000000
H       14.44000000      13.50000000       2.77000000
H       13.94000000      12.16000000       2.49000000
O       10.60000000      23.63000000      11.10000000
H       10.29000000      23.11000000      10.30000000
H       17.30000000      17.61000000       2.01000000
O        9.95000000       9.82000000       6.54000000
H        8.14000000      21.32000000       6.17000000
H        9.24000000       9.44000000       7.05000000
O       25.61000000      10.88000000      11.38000000
H       24.65000000      11.00000000      11.28000000
H       25.63000000      10.10000000      11.88000000
O       19.31000000       7.21000000       5.74000000
H       19.12000000       6.45000000       6.26000000
H       18.86000000       7.93000000       6.14000000
O        4.67000000      19.44000000       6.03000000
H        5.07000000      20.32000000       6.37000000
H       21.40000000      19.44000000       6.40000000
O        3.94000000      19.13000000       3.15000000
H        4.17000000      19.12000000       4.10000000
H        3.82000000      18.17000000       2.93000000
O       18.69000000      12.55000000      12.07000000
H        9.24000000       3.91000000       0.29000000
H       19.57000000      12.26000000      12.43000000
O       16.16000000      15.70000000       9.75000000
H       17.04000000      16.09000000       9.67000000
H       15.67000000      16.54000000       9.77000000
O        8.77000000       5.59000000       6.34000000
H        8.91000000       5.37000000       5.41000000
H        8.07000000       6.27000000       6.42000000
O       12.57000000      15.00000000       8.61000000
H       12.34000000      15.44000000       9.42000000
H       11.71000000      14.82000000       8.16000000
O       19.61000000      18.60000000       6.04000000
H       19.68000000      17.68000000       5.75000000
H       18.69000000      18.92000000       5.89000000
O       11.30000000      15.75000000      11.09000000
H       11.51000000      14.95000000      11.60000000
H       11.64000000      16.54000000      11.57000000
O       15.80000000      16.96000000       6.57000000
H       14.91000000      17.35000000       6.64000000
H       16.38000000      17.41000000       7.20000000
O       17.35000000      16.42000000       4.03000000
H       17.85000000      15.69000000       4.32000000
H       16.88000000      16.75000000       4.80000000
O       15.70000000       6.83000000       2.27000000
H       14.91000000       7.41000000       2.25000000
H       15.70000000       6.33000000       3.08000000
O       12.72000000      12.35000000       5.66000000
H       11.89000000      12.53000000       6.12000000
H       12.88000000      13.07000000       4.95000000
O        6.76000000       8.89000000       2.47000000
H        7.58000000       8.38000000       2.69000000
H        6.50000000       9.30000000       3.41000000
O        5.45000000      12.76000000       3.70000000
H        5.29000000      12.68000000       2.76000000
H        4.75000000      13.34000000       4.08000000
O       22.45000000      16.54000000       8.79000000
H       22.99000000      16.24000000       8.03000000
H       21.60000000      16.08000000       8.61000000
O       11.68000000       6.61000000       6.24000000
H       16.04000000       9.11000000      10.34000000
H       10.79000000       6.17000000       6.01000000
O        8.13000000      16.06000000       6.90000000
H        7.91000000      16.89000000       7.44000000
H        7.44000000      15.98000000       6.25000000
O        7.81000000      12.07000000       6.03000000
H        7.50000000      12.40000000       6.92000000
H        7.36000000      11.24000000       5.90000000
