384
Lattice="15.804144581243293 0.0 0.0 0.0 15.804144581243293 0.0 0.0 0.0 15.804144581243293" Properties=species:S:1:pos:R:3 pbc="T T T"
O       15.57906241       9.52488438      14.53497992
H       15.39136350       9.11081967      15.42256106
H        0.46478666       8.94835493      14.09977760
O        4.93120721      15.24841004      14.17286629
H        4.65911508       0.36299310      14.06588074
H        5.11192969      15.31782704      15.13712080
O        5.45237046       9.39871701      10.41548383
H        5.89510966       9.72958023       9.60003540
H        5.69949107       8.46205492      10.48356599
O       10.77435598       4.21577752       3.77044929
H       11.27850823       3.46237914       4.08517415
H       10.26085673       4.38907370       4.60146107
O        0.87671995       0.78707484       3.13987202
H       14.22444847       5.56061925       4.49691200
H        9.64697427       3.94794383       0.66181872
O        7.31492817       3.34787912      13.82212188
H       12.16939857      13.32794791      14.45354749
H       10.33824811       7.84834118       3.91009603
O        8.26098318      15.42893329       5.60209036
H        8.60565908       0.34764482       5.06507719
H        1.06147557       5.23892095       5.53175852
O       12.10778369       4.98582652       1.38542659
H       11.95641575       5.85509851       1.01224474
H       11.82609984       4.96552118       2.32850748
O        0.88336464       6.67799283       2.45138067
H        1.04390389       6.03013223       1.77204294
H        0.35136230       6.23008098       3.11724868
O       13.11215526      14.69819778      11.63668026
H       14.84357085       3.25311134       8.84093995
H       13.47819590      15.59620971      11.60850024
O        8.43444458       1.31069552       8.77752091
H       14.39244723       1.31635047      13.08096820
H       13.41216691       3.83703848       0.66355243
O        9.14812335       9.45363316       1.04238577
H       14.23189785      11.57570434       0.95902435
H        8.69353642       9.89171354       0.30508747
O        9.40623340      13.32639566       9.70297855
H        8.81139722      12.59724924       9.46126505
H       12.34456229       9.53009015       3.31387824
O        6.52453350      10.20210851       7.93211297
H        6.54616618      11.20784660      15.51295318
H        6.55450096      11.14689535       8.13410569
O        6.91762183       5.61075112      13.60897825
H        6.06246676       5.93533853      13.28747354
H        7.14353637       4.43316063      13.64175514
O        2.92597831      12.46890211      11.58736502
H        9.62375556      13.89001886       8.92460281
H        3.81899350      12.78283311      11.77119629
O        6.47482257      10.45392621      12.93791712
H        6.41381671      10.06549058      12.06806280
H        6.00513526       9.82989378      13.46378135
O        4.99754578      13.96473383       1.49835113
H        5.33711665      13.12343329       1.18198155
H        4.44835221      13.70113914       2.23041270
O       12.35206639      14.24633547      14.15336492
H       12.69066079      14.35081837      13.25764041
H        9.99077713       1.68071697       8.26279936
O        4.17173899       8.97082415       2.12163712
H        8.29857862       3.23199591      13.85908156
H       12.06827947      13.84924831       8.28330626
O        5.89155135      12.47770122       9.28961605
H        4.97120141      12.27544498       8.98183955
H        5.86353499      12.56626478      10.31429409
O       11.89977051       8.78518240       1.45541112
H       15.51706871       1.04303500      11.96048552
H        4.02534691       7.28363072       1.27723738
O        4.15344223       4.53731317       2.92732327
H       15.00531412       4.28444676       4.06507836
H        0.56058396       0.95176664       7.73814327
O        5.89895848      15.55740762       8.45206559
H        5.81898734      14.93692338       9.24741077
H        7.87472316       2.82550364       0.84027745
O        9.27087325      10.77046824      14.33011536
H        9.65300515      15.51949697      14.78769292
H        3.66007749      13.57689984      14.39932245
O        2.11045021      11.15494680      15.37490630
H        9.51525353      15.09963252       6.97669745
H        2.44877328      11.98719481      14.88150753
O       10.01225815       8.94523421       5.55120418
H        9.38353840       8.36865182       5.98129665
H        9.51528497       9.56635547       4.99343084
O       13.29830922      15.49697478       2.09299703
H       10.38251245       3.46821323       6.86094671
H        8.06173131      13.59148672      13.61048147
O        5.25427664       9.09322957       5.87350244
H        4.52788664       8.50046658       5.73096576
H        5.58863154       9.37972242       4.95807091
O        7.39219755       4.67098788       6.61678012
H        7.06669961       4.12027439       7.43058576
H        8.30113454       4.32065006       6.49945531
O       11.49929946      11.39300484       0.50050367
H       12.31564402      10.90862119       0.23414487
H       10.94577978      11.24948838      15.50696027
O        1.34888542      10.12242954       8.10857099
H        1.65328883       9.93983841       8.98667680
H        0.59816558      10.70563580       8.29141157
O       11.55346834       5.96410171       7.78483769
H       11.30346724       6.86948308       8.12607567
H       12.04645473       5.54312375       8.45483535
O       13.59540910       9.17437443       6.59751800
H        1.64427895      14.47223662      15.35854163
H       14.14603231       8.59501289       6.04822918
O        0.44190642       9.45728810       2.76710378
H        0.35740815       9.32029885       3.73559179
H        0.64482162       8.55672694       2.45100803
O       14.08412233       7.53667476       0.37370491
H       14.46326416       7.07076749       1.10465239
H        9.35413505       8.28247072      10.58017183
O        1.04015363      15.11319718      15.73469364
H        7.38930797       6.52935364       6.28940669
H        0.19526557      14.69311990       0.20710928
O        7.04172781       0.16926987       1.54444616
H        6.21548876      15.40934809       1.67825082
H        7.36731150       0.51252672       2.40374106
O       12.43091011       9.31129778      14.16234621
H        7.09464327       3.02552345      14.80290507
H       11.32056014      12.87582028       1.41282770
O        0.92259304       4.46957255       0.41100786
H        1.06752690       4.96673112      15.32993881
H       10.91455427      13.45632771       2.83274254
O       10.66993843      11.49373081       6.46253431
H       10.14849625      11.42965263       7.25190580
H       10.75677707      15.75972005       7.73069145
O        0.53984868       6.02610433      13.40840025
H        8.60235457      11.46257845      14.06552706
H        0.62168462       5.27368855      12.88484007
O        0.11886264      13.67481605       2.66201406
H       15.47108067      12.83329118       2.45731535
H        1.04830053      13.53787280       2.36705018
O        7.57532296       7.44581299       6.43495255
H        9.85682821       6.43347208      13.35410557
H        6.68922736       7.86889176       6.45304341
O       15.25366501      10.41341942      11.13638652
H       14.34651642      10.19383191      10.93986223
H       15.68250656       9.79271987      11.74080571
O        6.48589427       4.15866812       4.32230991
H        7.21840485       4.66178304       3.94230366
H        6.64480418       4.12555883       5.31102394
O       10.35639710      13.30113441       4.49406420
H       10.42116366      12.73000552       5.26694352
H        9.80771379      14.09298703       4.79349104
O        2.72944699      13.39637459      14.25086315
H        1.26407663      10.81093026      15.10437621
H        2.67661854      13.17318534      13.31764226
O        3.81815171       6.38229507       0.99671257
H        3.73785220       5.86977416       1.80619881
H        1.61099249      10.75173342       2.65976323
O        9.00216777      10.44879865       9.38862286
H        9.00544281      10.26040752      10.33296215
H        8.23579699       9.93034046       9.06586734
O        9.83005863       2.87984379      13.49005354
H       10.63653427       3.44438975      13.55436125
H       10.07406708       1.98499076      13.63504144
O        1.89606445      15.16339043       6.79666571
H        3.80675502       5.00206472       8.92921761
H        9.69089574       3.88198731       2.35525552
O        1.73734535       6.87932346      10.42137344
H       11.10967687       8.98584505       0.87833562
H        2.04338378       7.76095551      10.56401848
O       15.65200920      13.28801760      12.32282439
H       14.73421017      13.57906594      12.25023939
H       15.63583328      12.37713607      12.14114965
O        4.01574738       1.18648571      10.78348210
H        3.58547714       1.58924087      11.52239223
H        4.94030082       1.00357096      11.06408138
O        0.66662488       8.65759446       5.77517788
H        0.76611335       9.35064926       6.46219836
H        1.57579770       8.52610462       5.43126219
O        9.56056757       8.76604648      11.38061463
H        9.35113315       8.06275689      12.03901616
H        5.84446040       3.49540533      10.79464499
O       11.33748464      12.47171002      11.24725017
H       11.08855370      12.92816054      12.00570326
H       10.75047775      12.70680908      10.53976738
O        2.79777411      14.08968610       9.36968114
H        3.61626550      14.59031473       9.16464476
H        2.32669393      14.36067327       8.56708977
O        4.21235641       6.31424021      13.78208459
H        4.60411794       7.11233533      14.00720780
H        3.72795315       6.14094228      14.58853393
O       10.75749541       1.77029475       7.73237095
H       11.57902992       1.74604171       8.26353654
H        1.28907195       6.60060587      11.22326073
O        3.36984607      13.41193990       4.10793336
H        3.10705353      12.54328892       3.77865613
H        2.77945428      13.61678025       4.83619011
O       12.83542574       6.52493553       5.12427542
H       12.01992862       6.53954753       4.69874392
H        3.83128403       3.74955365       2.54897129
O       10.13070387       0.33191938      14.16312366
H       13.77921374       1.36028581       4.56795343
H       10.96703395      15.65928460      14.14926934
O       14.05682693       3.12621938       0.88073495
H       14.86243703       3.64900547       0.77443315
H       13.48270964      13.15578561       8.34633383
O        3.51523647       3.35087407       5.76362121
H        2.64718545      12.93442491      10.79060671
H        2.84085073       3.76995068       6.32741520
O        0.11795420       1.61413829       8.27662285
H       14.10785388       1.01741785       9.17422421
H        0.82274440       2.19589391       8.56317922
O       14.50999757       4.04295570       9.30984105
H        7.28735720      15.32619400       5.48036503
H       14.89401469       4.86698068       8.92439616
O       11.17455315       6.88296140      14.74970125
H       11.97355924       6.34586061      14.61266303
H       11.50239258       7.73513919      14.50570286
O       13.20036815       0.80609217       9.13172062
H        0.15299652       0.88154334       3.81174795
H        7.35312347       9.78434323       3.29998335
O        9.07190744      10.82653984       3.52003291
H        2.34825135       2.13759872       0.80727307
H        4.67093235       8.90539174       0.09582421
O       11.62635100       3.44731717      10.44324481
H       11.94777800       3.44333304      11.36589805
H       12.40567768       3.11458667       9.98996484
O        3.06005113       7.63673955       4.72053048
H        5.94772389       9.95061451       7.16749877
H       12.67374044       6.32810255       6.07363460
O        6.68167552       3.13578810      10.97157899
H        6.58252939       2.42909646      11.62889023
H       11.99604414       1.62982917       3.20744958
O       14.54709296       1.14699129      12.14364877
H        7.87778847       0.53145317       8.74127742
H        2.98906868       6.68838828       4.87160256
O       10.62556421       7.25591676       3.18827190
H        8.85023886       6.40458599       3.09753351
H        0.57459597       0.02024619       2.68392895
O        6.61742829       9.23764265       3.45608921
H        4.99886129      14.27102230       4.86870207
H        7.08053391       8.40631426       3.59023709
O        5.81384641      11.52718435       0.31434630
H        5.09444698      10.90449637       0.08002052
H       13.35263704       9.13439359      14.35930851
O        9.13832599       4.56702502      10.70307769
H        9.90177853       4.01250644      10.62209275
H        8.38180898       3.94900927      10.78213296
O       12.34464865       9.93296310      11.38329046
H       11.68601845       9.38244723      10.87957017
H       11.98639782      10.82786944      11.19973510
O       14.97963337      11.99521576       7.42051972
H       15.38143707      12.50886161       6.73537568
H       14.64229822      11.23443215       7.00412818
O        3.63316491      11.92672193       7.05207777
H        9.35044403       5.91132588      11.91812336
H        3.48193041      11.06579485       6.64647516
O        5.38913929      15.08644131       5.27059965
H        4.76212478       0.02030734       5.22791749
H        2.61613392      15.44942496       6.28122931
O       14.27121690      11.96226890      14.97322925
H       14.24469310      12.79659144      14.49889326
H        3.63662842       3.89455508       5.01339365
O        4.74890319       9.20994051      14.96898398
H        3.83241264       9.26411795      14.65073971
H       10.57986126       9.14520689       8.63180222
O        0.29861969       6.21789688       8.20172748
H        0.14351629       6.99078465       7.66538805
H        0.99023977       6.47399015       8.89286005
O        3.00611589       2.81002345       0.93067408
H       12.63825647      14.82222068       2.15978510
H        3.48025816       2.90128117       0.08368754
O       10.28537309      14.85097716       7.64798993
H        2.80247752       7.66400571       3.73014292
H        1.73670709       4.12549711       0.74584389
O       12.51403962       3.96540749      13.36965835
H       12.99182908       4.80238359      13.53111529
H       13.05011039       3.30035309      13.81875144
O       10.40299907       0.87882080       2.11467939
H       15.25177675       6.20799515      13.58096541
H       10.09948933       1.52322639       1.44990105
O       15.66478847      14.18301967       5.44921986
H       15.06670765      15.01548606       5.38697115
H        5.61161981      15.07614801       7.66983020
O        7.62390664      13.13327683      14.28045294
H        8.04874767      13.52678040      15.10154080
H       14.75604652      11.29261690      14.44333945
O       14.43249960      11.34595523       1.87115812
H        0.74985893       3.07559201      12.19592285
H       15.04433598      10.61647867       1.95736790
O       11.14173628      13.69057880       1.94591713
H        2.21911327      11.25426064       1.35267533
H       13.22767918      15.65901690       9.15460939
O       11.30525813       8.55595678       8.83445333
H       12.12752906       8.82634855       8.27857229
H        7.91305646       1.96384105       9.36539811
O        6.79951332       6.40858836       0.67695430
H        5.89723960       6.05010294       0.64143736
H        7.25727780       6.13252022      15.67080742
O        4.15306089       4.47750167      11.83402093
H       13.05149631       9.65935882       5.97129634
H        4.16138997       5.32219618      12.31513022
O       15.10264650       5.18683994       4.39985320
H        1.18869575      14.76586193       6.18938848
H        3.67922974       4.65389644      11.06661396
O        7.06483976       2.52794554       0.33344437
H        9.03219648      11.72930222       3.74906263
H        6.92178040       1.58740282       0.63852743
O       14.54294078       0.91207388       5.09348792
H        2.46260483       0.70136554       4.52858586
H       13.97740541       6.87714181      15.51303869
O        8.70937443      14.71687335      12.03576978
H        8.83827438      14.29786954      11.16208127
H        9.42996766      15.24747890      12.29739201
O        8.04866849       5.78522178       3.01610918
H        7.66159570       5.96134073       2.14736202
H        4.90861048       9.04866795       2.70042570
O        9.16060379       6.48565642      12.65569524
H        7.68126961       6.10623156      13.17707526
H        4.17411571       2.73840287      13.21426063
O        1.33677563      15.41542500      11.42601386
H        1.71793977      15.28173700      10.51205166
H        9.64830195      10.77423964       2.74975382
O        3.31491235       0.77599012       5.07143258
H        3.26166083       1.71710319       5.26539730
H       10.71874585      10.58274632       6.14572649
O       10.04562801       4.23569569       6.39995239
H       10.51900048       4.94971128       6.88275548
H       10.66856678       0.09848445       1.64868309
O        1.85836102       5.36822169       6.09761259
H        5.03148600       4.43763282       3.40003855
H        8.92643404       8.48823514       1.15762613
O       13.34689538       1.29661269      14.71947597
H       13.14301201       0.39537326      15.04825029
H       13.53961325       1.81817122      15.56157549
O       12.91452364      13.85878636       8.78484380
H       14.13594995      15.23439432       2.47425398
H        0.83781364      14.59475844      11.60142499
O        0.54529640       3.82374021      11.61489613
H       11.24816071       7.86919026       2.63592609
H       15.42043962       3.76529639      11.30422778
O       12.47899707      10.32441333       3.93236158
H       14.44511891       1.30613382       5.96731790
H       12.79037834      11.04805831       3.31867270
O        9.33624518       3.49486078       1.45335655
H       12.95349968      14.36308057      10.75066464
H        1.52657522       5.57393932       6.97931862
O        3.99477311       2.09566278      13.94553852
H        3.02639418       1.94193152      13.79325416
H       12.38854470       9.67983300      13.31784387
O        1.93344453       8.31553704      13.65142233
H        3.75152661       9.83147752       2.26267689
H        2.19953613       8.70542038      12.81558291
O        8.93329407      14.47683316       0.36838183
H        8.17711545      14.94890897       0.82878852
H        9.61504222      14.18080899       0.99598396
O       13.77290255       6.21769404      13.91664936
H       13.32535342       6.96558861      13.58263936
H        1.71914833       7.37313361      13.44124254
O        8.25594784       1.71581576       3.57851096
H        7.69437083       2.36232479       3.99056932
H        9.15055832       1.97979526       3.44554307
O        5.39152127       2.51316718       7.73526660
H        4.97929444       2.41574398       6.88861445
H        5.68236932       1.64245278       8.04884680
O        1.41269609       1.57465890      13.25654590
H        1.50564729       0.63848855      12.78473044
H       12.57029687       8.34675362       0.92148543
O        5.62552218      12.89676970      11.96795203
H        6.03754952      12.33656766      12.69756455
H        5.83836772      13.78335250      12.26720535
O        8.52833028       7.23533184       9.08795767
H        8.36913354       7.49050656       8.11340631
H        9.11140149       6.46957150       9.14996561
O        6.29952444      15.68890342      11.73268131
H        6.04464074      15.80252735      12.67878891
H        7.25254935      15.59793295      11.67473151
O        2.34673311      11.29943632       2.32943541
H        9.51042905      10.29749274      13.48100348
H        2.74512560      12.22477726       7.29603967
O        2.10233382       3.10482120       9.44730559
H        1.52217558       3.41271560      10.14652105
H        2.67113010       2.46678119       9.86089133
O        6.31527835       6.64262343      10.75581337
H        5.82786550       5.86000379      10.40399153
H        7.11706291       6.76702959      10.20650119
O        4.68434448       4.68191354       9.09385259
H       15.71857227      13.82906983       4.51538928
H        4.87673590       3.91436881       8.50391925
O       12.56099204       2.18089655       3.70600534
H        0.90870151       1.37686467      14.03723874
H       13.09333339       2.58641477       2.97993525
O        2.77007217       9.71449975      11.27771019
H        3.66197246       9.63962011      10.91379079
H        2.59917492      10.66047434      11.37505651
