384
Lattice="15.837506671486997 0.0 0.0 0.0 15.837506671486997 0.0 0.0 0.0 15.837506671486997" Properties=species:S:1:pos:R:3 pbc="T T T"
O        4.05854066      10.21425658       5.88324704
H        4.87696961       9.88906011       6.14877426
H        3.75329421      10.55318197       6.75829998
O        3.63660982      12.60901806       3.39547605
H        3.69797357      13.52668658       3.67055744
H        3.77832763      12.00459795       4.15721465
O        9.95304161       0.17747316      10.98701535
H        9.48395350      15.27283127      10.62251814
H       10.91784699       0.04105118      10.80650267
O        8.56008011       9.43490603       5.04556766
H        8.72686482       8.91314807       4.25516081
H        8.61419439      10.32908748       4.69907287
O        5.92714464       8.49012571       6.15266532
H        5.56049815       8.10078904       5.38451559
H       13.59800090      11.54176513       0.38987248
O       14.29155976      12.50512015       9.53000892
H       13.48428354      12.23890397       9.93796416
H        0.66514654       0.35475688       4.73665442
O        9.78814053      10.91155687      11.49998092
H        9.53591010      10.80186913      12.43138118
H        0.86429144       4.07619398       8.31503014
O       12.55928105       6.53699314       8.96756534
H       13.07836206       7.12054958       8.39325798
H       11.71817375       7.03513576       9.02245392
O       10.12444619      13.39947989       7.66848985
H       10.83572615      12.69552711       7.88607306
H       10.41573833      13.56049044       6.77027887
O       14.79111626       0.29175356      13.37181845
H        2.95541154      11.32344359      11.19846471
H       15.14413802      15.56688730      14.07221876
O        3.83237936       4.87047624      10.35343547
H        8.59139413       1.55664613       0.36980417
H        1.62845409       7.69186709      11.98009471
O        0.30124872      13.91829595      14.95882035
H        2.11932474      10.83665904       1.03801065
H        0.83985840      14.53381913      15.47597828
O       11.90579950      13.10745341      10.80092087
H       12.25811901      13.95878120      10.54977493
H        7.52167802       5.79664513       9.52911595
O        4.21956591      14.54112351      14.98121218
H        0.66945067      12.44912318      15.50061689
H        4.46515135      13.79937699      14.41268517
O        2.06904105      15.66251145       0.67504592
H        2.87067211      15.17721521       0.41637582
H        1.82410816      15.31168723       1.51491191
O       11.16236114       1.89245541       6.37847776
H       11.62044116      13.21893744      11.72856963
H       10.30027133       2.07455167       6.84184586
O       12.49878381      13.99915930       3.42567878
H       13.44371385      14.00227562       3.65591950
H       12.44430809      13.85575237       2.48973314
O        9.02263406      10.65402936      14.10327990
H        7.94508901      10.55409235      14.10520503
H        9.18481005      11.04979753      15.00986229
O       15.60823723       3.34082117       2.63586485
H       14.71646563       2.96670276       2.82290804
H       15.59096335       3.54567827       1.67871286
O        1.18191753       7.00410638       7.35348311
H       14.09253110      13.25683593       8.93409824
H       13.48726225       5.05913794      14.72650690
O        4.19946212       8.56354291       1.89854448
H        3.58894181       9.32571656       1.97496229
H        4.63738219       8.62497324       1.04468420
O        6.13234575       9.16715987      12.00183251
H        8.69739272       2.93348461      15.62560831
H       14.25766033       8.60566538       2.88097124
O        6.05970571       0.16000023       1.40409524
H       15.73720774      12.64672968      12.42889451
H        6.25802138       1.11523048       1.56590295
O        7.98762854      13.42493199      14.82176634
H        7.58980459      12.64532857      14.35201635
H        7.97730586      14.11199410      14.16875008
O        6.42957829      10.72622057      14.12616123
H       10.86983632      13.90801455      13.86171823
H       10.63144927       6.17827854      12.56614665
O       11.99384418      11.63724816       7.33432714
H       10.92401253       4.53114706       4.68019746
H       12.81488738      12.16241246       7.17584024
O        8.08542868       1.90794465       4.84737034
H        7.73764039       2.48403224       5.53032073
H        8.45182983       1.17523905       5.28007842
O       12.89763838       0.01944833      11.00436971
H       12.29577129       5.91983484       2.56430808
H       11.26845956       0.20670790       5.76075098
O        8.52874046      10.07401051       8.07676516
H        9.15667105       9.57731804       8.61741506
H        8.54892449       9.70463646       7.19187405
O        4.05650057      15.33154386       3.24590877
H        4.75158744      15.53811729       2.59925291
H        4.22333705       0.10140377       3.98962878
O        3.37295315      10.90940081       9.35281664
H        2.79417917      10.09646350       9.42254581
H        4.28663595      10.65286579       9.52319417
O        8.91320290      13.40461764       9.93439588
H        9.31129334      12.68415527      10.44613202
H        9.45715900      13.41290366       9.12347763
O       13.62657539      13.85707447       7.32827660
H       12.98035368      14.41241431       6.86187964
H       14.26802993      13.74434207       6.60749400
O        4.24775047       4.21742167       4.07349102
H       12.58675399       9.79321690       5.78470799
H        4.55771256       5.09323189       4.19870327
O        5.19784453      12.77174225      13.06411826
H        5.67190780      12.99326956      12.29818133
H        5.67351339      11.99267067      13.56266999
O        3.80491422       8.59315952      14.71314365
H        2.84753897       8.70933348      14.64986802
H        6.07367469       2.80477957      10.82630753
O       12.19041113       9.63910050       4.94708456
H        1.08804720      14.92536123       9.71668411
H       11.53449534      10.35157007       4.89534172
O       11.44011401       2.13839328      13.20979872
H       12.06297218       2.76026384      13.65549376
H       11.61757277       2.11225273      12.27492195
O       14.99879453      13.26074917       4.23801890
H       15.76102053      13.80794184       4.49533426
H        4.43068465       6.84144458      14.64590775
O       14.22513815       8.25308058       7.37829362
H       14.74579758       8.89127940       7.84828803
H        1.64289744       7.37158082       6.57296617
O        9.66670998       4.19282877      14.35754553
H       10.35215973       4.82847197      14.02251869
H       10.86713361       5.76891072       5.60865931
O        9.37879258       8.26943157      14.97802207
H        9.28246427       9.10133908      14.45046386
H        8.72917873       7.61339162      14.76375464
O        6.49713565      11.64514762       2.88731692
H        5.57940254      11.93245228       2.92147202
H        6.52782147      10.86229332       2.36727012
O        8.59661979       7.66468318      11.66835077
H        8.48178352       6.72363977      11.30757229
H        7.76124089       8.12434684      11.69848241
O       15.74792407      10.63750114       8.58121404
H       15.21600354      11.38721729       9.10946075
H        0.44983783      11.01430882       7.85278079
O        7.56613350       0.24538296      12.52336349
H        7.26087007       0.01323131      11.65846830
H        8.36557897       0.73226662      12.36718805
O        6.33635814       2.63362850       2.64173952
H        6.89534904       2.26446015       3.38848812
H        5.63171275       3.17551895       3.06683745
O       11.01796851       6.40655176      13.43066805
H       12.29480044      11.07483917       8.09224427
H       10.66460153       7.13904609      13.82924610
O       13.97606575       9.59076210       2.94473848
H       13.28778206       9.52902037       3.67895879
H        9.38217197       4.74858814       1.71237142
O        6.38226033      10.95199848       9.86685099
H        6.44453465      10.35800588      10.69793269
H        7.19940415      10.80517257       9.33189715
O        2.50115938      14.59177746       6.62074062
H        3.18724361      15.16573356       6.23817501
H        1.63734015      15.01011450       6.36859300
O        7.64728829       6.26619648      14.78015514
H        3.53973342       4.21160794       3.44005717
H       13.98795714      10.42086047       1.45673778
O        0.51201512      15.40454317      10.32721932
H        5.36140882       8.64802075      11.79488907
H        0.14255912      14.79861505      10.96270154
O        2.71424174       4.03548009       1.77161622
H        1.97532033       3.97944746       1.20943145
H        3.38497836       3.55570259       1.26271676
O        2.72972963      13.79652308       9.17796523
H        2.56007275      14.05798686       8.24536013
H        2.94973591      12.79248554       9.26538237
O        5.97280036      14.41508113      10.09165102
H        6.77478984      13.81556133      10.24669297
H        5.19267981      13.86493604      10.16595582
O        5.69289965       3.50010244      11.38195008
H        5.74029461       3.17229550      12.29170186
H        7.70101879       6.25053535       2.67488826
O        1.61444790       1.60303157       3.57031411
H        2.52309708       1.46742769       3.18268289
H        1.22565890       2.17421973       2.85076983
O       14.56505161      10.20539107      12.77570570
H       15.34115766       9.81119813      13.23421061
H       14.45573388      11.10263712      13.05798502
O        3.71953758       2.96662833       6.73521053
H        4.37122411       3.72348300       6.94075577
H        3.48952202       3.15890689       5.80877273
O       10.53385892       2.50882854       3.20206001
H        9.63581450       2.50120178       3.61017661
H       10.52261164       3.21939294       2.51455219
O        9.68698757       0.41951279       1.36579767
H        9.95057426       0.85587810       2.21482294
H        9.32740034      15.41584953       1.61789053
O       15.05483174       6.21838327      14.27627188
H       14.60550723       7.04201352      14.58869099
H       15.50929769       6.53967355      13.44434960
O       11.05440065      13.06860944      13.40808134
H        4.37795679       4.34091527      15.23226638
H       10.33643029      12.47973152      13.68926367
O        0.87565968       7.03301110      11.96233010
H        0.51370117       7.23485127      11.12054674
H       13.88046764       3.82152055      15.47393157
O        0.53750707       2.15516703      11.69962005
H       11.75726196       2.36692730       6.99037719
H        0.68187147       1.22186079      11.33045092
O        0.79597810      11.45369402       0.04590498
H        4.30588431       1.45451515       6.24279164
H       15.68113842      11.18970661       0.27296852
O        2.78189717      11.34482039      12.16243742
H        9.15720263      10.39347034      11.01210350
H        3.55180749      11.86890730      12.53684812
O       10.95098155      15.62006168      14.86653060
H       11.06978487       0.56196342      14.20697665
H       10.51270663       0.19742800      15.59655933
O        1.30454089       9.60030226      13.95570161
H        1.60522144      10.19636983      13.20571505
H       15.50362027       6.08078051       3.69985977
O       13.96510305       5.19344748       5.83365878
H       14.93016571       5.19531089       4.93685068
H       12.98039893       5.06116535       5.57290029
O       12.11168473      13.35553692       0.57582176
H       11.86283219      14.17517855       0.15886873
H       11.32953097      12.80115582       0.41500089
O        2.29996559       8.44012593       5.03164705
H        4.92183394      14.67755553      15.66614504
H        3.03732130       9.07943705       5.24835023
O        8.04451652       6.77306336       3.48134748
H        9.03687625       6.81174221       3.34454227
H        1.50095118      12.60655017       6.17134460
O        8.04774382       2.26068213      15.78350921
H        4.42413571       4.30064766      10.84325535
H        1.55487811       8.95081838       4.62567397
O        0.21243297      15.72537807       5.49072065
H       15.49051032       0.53261600       5.91788627
H        6.84296872       8.58487161       5.87356641
O       14.84299351       7.06158985       2.49507993
H       14.17664353       6.40557051       2.18069485
H       15.56012480       7.09567722       1.83936030
O        0.60270061      10.39497222       3.89880012
H        1.04305556      10.41509349       3.03582285
H       15.52650170      10.03121642       3.69250827
O        8.27298449      15.77069684       6.99239667
H        7.70531997      15.05894758       7.32743262
H        9.15268949      15.37374771       6.89575963
O       13.08286641       8.25950500      14.43164287
H       13.38411582       8.98641251      13.89509324
H       12.23203398       8.01395513      14.15395570
O        1.29979447       7.25124847       1.10394877
H        1.62564056       6.65539813       0.46846390
H        2.02907088       7.42179302       1.70191062
O        7.49877953       9.15978774       1.37200154
H        3.29324040       7.84204134      10.61376956
H        7.49608027       8.32539172       1.85435780
O       12.92698728       5.21326176       2.27730563
H       12.51876037       4.92363532       1.46627155
H        8.20960696       5.58300540      14.39492787
O        4.61744213       5.60798534       7.54890943
H        4.82482297       6.10662573       8.30210502
H        1.26184206       2.32369245      12.35831265
O       14.51370744       1.28502061       9.12220324
H       14.58849772       1.70561457       8.29322574
H        0.64324446       3.45880859      10.58786410
O       10.07002223       2.52319741       9.70487580
H        9.85124112       1.62615557      10.13054050
H       10.77994767       2.30962263       9.09837122
O       15.79815637       5.35234792       4.31887583
H       13.47980410      15.72338642      11.70737773
H        0.21802647       4.60229933       3.74901725
O       11.39117377       4.99807075       5.32414264
H       10.16262895       4.45344609       0.36297662
H       14.89264782       7.64173696       7.06400006
O       10.22848162      11.13171483       0.71046540
H       10.68015747      10.28305581       0.84147422
H       10.02709270      11.48267618       1.63757792
O       11.32275151       8.44532123       0.90300779
H       10.63886383       8.49810775       0.19202273
H       12.18230719       8.51246339       0.43611974
O       14.10130132       5.68841329      10.99287419
H       13.54837313       5.90417208      10.17848780
H       13.93208980       6.39335736      11.63935378
O       11.38931892      15.06814426       5.65929718
H       11.56277437      14.77106504       4.74741712
H        4.78624298       6.06910085       6.75864515
O        2.65169269      10.63621994       1.79459063
H       15.23497822       0.63096542       9.19466354
H        3.00121442      11.50866664       2.07387194
O        4.91971288       6.08892514      14.24089901
H        4.81609750       6.16152370      13.28235038
H        1.05673949      10.14163017      14.75313854
O        0.75549637       4.27118984      10.11806540
H        0.06793140       4.87571989      10.37220253
H        2.93972199       4.52999890      10.33675730
O       10.65179128      11.84191623       3.77716442
H       11.23721563      12.63111219       3.63487988
H       10.04211856      12.23565926       4.41161273
O        8.13263048      12.56388248       5.02805383
H        7.49313711      12.54965656       4.24603275
H        7.57783483      12.85795323       5.78947292
O        0.71017348      13.20827441      12.49920440
H        6.75220445       6.21686572      14.42073578
H        1.37593510      12.78711863      11.94044489
O       12.91699423      10.22286004      10.63123583
H       13.53078066      10.23131261      11.41129994
H       12.15304590      10.65369508      11.03562699
O        4.17640508       3.40279727      15.44824404
H        9.52307518       7.68875160       6.36921963
H        4.20244165       8.91312778      13.93942933
O        0.27638561       4.16259085       0.03044409
H       15.80798242       4.94696338      15.38703184
H        0.75092728       3.61026650      15.24717167
O        4.69973231       0.72250348       5.71846089
H        5.49769946       1.13080122       5.45744776
H        1.35104764       6.03744739       7.33122870
O        3.93821404       7.39390046      11.22249789
H        3.87614179       6.42845219      10.88004498
H       10.03537399       4.95287439      10.77947280
O       12.72731287       3.75271437       8.21651668
H       12.40346568       4.67650516       8.40882773
H       14.08324809       4.84185034       6.72650612
O        9.78103821       6.78866883       6.61233507
H        8.97744783       6.35986551       6.95576058
H        9.80549971       3.37727535      13.89747147
O       10.85624555       7.51820132       3.60743991
H       11.10419824       8.23856667       4.24379633
H       10.91882605       8.01604742       2.77250088
O        1.07489884       3.95132454       7.33771059
H        6.86563030      15.47115540       1.44087319
H        0.80720490      13.75631759      14.11452649
O        7.04290194       7.20335262       8.55539576
H        7.30888875       7.95959765       9.01800401
H        6.47798123       7.49306136       7.85996720
O       13.11573489       4.39484695      15.31399489
H       13.39925413       0.17040033      10.25213249
H       12.83726871       3.38547792       9.11039233
O        6.64431814      13.30034146       7.39369306
H        7.20927557      12.89767478       8.00867144
H        5.89670269      13.36298679       7.89677212
O        7.98138405       5.14984123      10.08563275
H        4.79753693       2.93629222      14.93861714
H        7.25261972       4.64023771      10.44853170
O       14.09386088      10.76045729       0.55091645
H       15.40183822       0.90659764      12.93912428
H        2.02519718       3.76333465       7.22055622
O       10.91824061       5.18784005      11.15380311
H       11.42424382       4.40664452      10.86551681
H       15.25602048      12.33199765       4.20041989
O       13.04135839       2.96268831      10.93032992
H       13.34485702       2.09366984      10.71141080
H       13.75966264       3.53583208      11.15691857
O        6.14867885       2.09283484      13.86881191
H        6.96289765       2.03790991      14.37979275
H        6.32228330       1.41475184      13.22010791
O       13.88826401      12.54987277      13.77720286
H       12.94588049      12.66394892      13.84107081
H       14.36239103      13.19618509      14.40357547
O        7.42742756       4.92208860       1.68533719
H        7.09673247       4.06459553       1.90332016
H        7.26823312       5.00583125       0.72690285
O       10.77277953       8.31199624      10.03746518
H       11.54111174       8.77563868      10.36990305
H       10.16004896       8.04577806      10.81480884
O        8.01323838       3.75663726       7.31176457
H        8.81009436       3.57781705       7.85806026
H        6.12951041       9.59508642      12.89693919
O        4.54506611       7.09125599       4.11270163
H        4.53176586       7.53037504       3.21272418
H        3.64484907       7.22839265       4.45278631
O        1.82421848       2.34665664      14.40407556
H        2.64118323       2.75765964      14.65590522
H        1.84001210       1.49672356      14.85062381
O       15.04524353       2.18199715       6.41299067
H       14.53673963       2.58187156       5.66940165
H       15.82910504       2.74361762       6.61393948
O       10.27135534       4.70849574       1.32594831
H        6.21607522      10.25333914      14.90239590
H        8.21739923       9.03306608       0.70339207
O        1.69835510       8.99325576       9.51470822
H        1.47044254       8.29804794       8.90069729
H        1.02581312       9.61258239       9.25547621
O       13.34917273       1.74777562       3.99053924
H       12.44105761       2.02995163       3.86753276
H       13.29463029       0.76401937       4.02549751
O        5.79143530       1.25652536       9.77769380
H        6.39488919       1.15663547       8.95968379
H        5.59374996       0.37122702       9.99524488
O        1.25755037      11.67881873       6.46274643
H        7.35950896       3.82456216       7.98698322
H        0.99320404      11.24933875       5.62541523
O        8.10258938      14.05558077       1.64140197
H        7.93258263      13.71365869       0.71247560
H        7.85998076      13.30395304       2.21214969
