units	metal
atom_style atomic
atom_modify map yes
read_data   data/data.lmp

pair_style  metatensor  qtip4pf-mta.pt
pair_coeff * * 1 8

neighbor	2.0 bin

timestep	0.0005

dump myDump all xyz 10 dump.xyz
dump_modify myDump element H O

thermo_style	multi
thermo		1

fix 1 all nve
fix 2 all langevin 300 300 1.00 12345 

run		2000

