units metal  # Angstroms, eV, picoseconds 
atom_style atomic
read_data data/water_32.data

# loads metatomic QTIP4P/f model
pair_style metatensor qtip4pf-mta.pt
pair_coeff * * 1 8

neighbor 2.0 bin
timestep 0.0005

dump myDump all xyz 20 trajectory.xyz
dump_modify myDump element H O

thermo_style multi
thermo 1

fix 1 all nve
fix 2 all langevin 300 300 1.00 12345 

run 200
